*SPEF "ieee 1481-1999"
*DESIGN "user_project_wrapper"
*DATE "01:04:08 Friday May 29, 2026"
*VENDOR "The OpenROAD Project"
*PROGRAM "OpenROAD"
*VERSION "edf00dff99f6c40d67a30c0e22a8191c5d2ed9d6"
*DESIGN_FLOW "NAME_SCOPE LOCAL" "PIN_CAP NONE"
*DIVIDER /
*DELIMITER :
*BUS_DELIMITER []
*T_UNIT 1 NS
*C_UNIT 1 PF
*R_UNIT 1 OHM
*L_UNIT 1 HENRY

*NAME_MAP
*1 analog_io[0]
*2 analog_io[10]
*3 analog_io[11]
*4 analog_io[12]
*5 analog_io[13]
*6 analog_io[14]
*7 analog_io[15]
*8 analog_io[16]
*9 analog_io[17]
*10 analog_io[18]
*11 analog_io[19]
*12 analog_io[1]
*13 analog_io[20]
*14 analog_io[21]
*15 analog_io[22]
*16 analog_io[23]
*17 analog_io[24]
*18 analog_io[25]
*19 analog_io[26]
*20 analog_io[27]
*21 analog_io[28]
*22 analog_io[2]
*23 analog_io[3]
*24 analog_io[4]
*25 analog_io[5]
*26 analog_io[6]
*27 analog_io[7]
*28 analog_io[8]
*29 analog_io[9]
*30 io_in[0]
*31 io_in[10]
*32 io_in[11]
*33 io_in[12]
*34 io_in[13]
*35 io_in[14]
*36 io_in[15]
*37 io_in[16]
*38 io_in[17]
*39 io_in[18]
*40 io_in[19]
*41 io_in[1]
*42 io_in[20]
*43 io_in[21]
*44 io_in[22]
*45 io_in[23]
*46 io_in[24]
*47 io_in[25]
*48 io_in[26]
*49 io_in[27]
*50 io_in[28]
*51 io_in[29]
*52 io_in[2]
*53 io_in[30]
*54 io_in[31]
*55 io_in[32]
*56 io_in[33]
*57 io_in[34]
*58 io_in[35]
*59 io_in[36]
*60 io_in[37]
*61 io_in[3]
*62 io_in[4]
*63 io_in[5]
*64 io_in[6]
*65 io_in[7]
*66 io_in[8]
*67 io_in[9]
*68 io_oeb[0]
*69 io_oeb[10]
*70 io_oeb[11]
*71 io_oeb[12]
*72 io_oeb[13]
*73 io_oeb[14]
*74 io_oeb[15]
*75 io_oeb[16]
*76 io_oeb[17]
*77 io_oeb[18]
*78 io_oeb[19]
*79 io_oeb[1]
*80 io_oeb[20]
*81 io_oeb[21]
*82 io_oeb[22]
*83 io_oeb[23]
*84 io_oeb[24]
*85 io_oeb[25]
*86 io_oeb[26]
*87 io_oeb[27]
*88 io_oeb[28]
*89 io_oeb[29]
*90 io_oeb[2]
*91 io_oeb[30]
*92 io_oeb[31]
*93 io_oeb[32]
*94 io_oeb[33]
*95 io_oeb[34]
*96 io_oeb[35]
*97 io_oeb[36]
*98 io_oeb[37]
*99 io_oeb[3]
*100 io_oeb[4]
*101 io_oeb[5]
*102 io_oeb[6]
*103 io_oeb[7]
*104 io_oeb[8]
*105 io_oeb[9]
*106 io_out[0]
*107 io_out[10]
*108 io_out[11]
*109 io_out[12]
*110 io_out[13]
*111 io_out[14]
*112 io_out[15]
*113 io_out[16]
*114 io_out[17]
*115 io_out[18]
*116 io_out[19]
*117 io_out[1]
*118 io_out[20]
*119 io_out[21]
*120 io_out[22]
*121 io_out[23]
*122 io_out[24]
*123 io_out[25]
*124 io_out[26]
*125 io_out[27]
*126 io_out[28]
*127 io_out[29]
*128 io_out[2]
*129 io_out[30]
*130 io_out[31]
*131 io_out[32]
*132 io_out[33]
*133 io_out[34]
*134 io_out[35]
*135 io_out[36]
*136 io_out[37]
*137 io_out[3]
*138 io_out[4]
*139 io_out[5]
*140 io_out[6]
*141 io_out[7]
*142 io_out[8]
*143 io_out[9]
*144 la_data_in[0]
*145 la_data_in[100]
*146 la_data_in[101]
*147 la_data_in[102]
*148 la_data_in[103]
*149 la_data_in[104]
*150 la_data_in[105]
*151 la_data_in[106]
*152 la_data_in[107]
*153 la_data_in[108]
*154 la_data_in[109]
*155 la_data_in[10]
*156 la_data_in[110]
*157 la_data_in[111]
*158 la_data_in[112]
*159 la_data_in[113]
*160 la_data_in[114]
*161 la_data_in[115]
*162 la_data_in[116]
*163 la_data_in[117]
*164 la_data_in[118]
*165 la_data_in[119]
*166 la_data_in[11]
*167 la_data_in[120]
*168 la_data_in[121]
*169 la_data_in[122]
*170 la_data_in[123]
*171 la_data_in[124]
*172 la_data_in[125]
*173 la_data_in[126]
*174 la_data_in[127]
*175 la_data_in[12]
*176 la_data_in[13]
*177 la_data_in[14]
*178 la_data_in[15]
*179 la_data_in[16]
*180 la_data_in[17]
*181 la_data_in[18]
*182 la_data_in[19]
*183 la_data_in[1]
*184 la_data_in[20]
*185 la_data_in[21]
*186 la_data_in[22]
*187 la_data_in[23]
*188 la_data_in[24]
*189 la_data_in[25]
*190 la_data_in[26]
*191 la_data_in[27]
*192 la_data_in[28]
*193 la_data_in[29]
*194 la_data_in[2]
*195 la_data_in[30]
*196 la_data_in[31]
*197 la_data_in[32]
*198 la_data_in[33]
*199 la_data_in[34]
*200 la_data_in[35]
*201 la_data_in[36]
*202 la_data_in[37]
*203 la_data_in[38]
*204 la_data_in[39]
*205 la_data_in[3]
*206 la_data_in[40]
*207 la_data_in[41]
*208 la_data_in[42]
*209 la_data_in[43]
*210 la_data_in[44]
*211 la_data_in[45]
*212 la_data_in[46]
*213 la_data_in[47]
*214 la_data_in[48]
*215 la_data_in[49]
*216 la_data_in[4]
*217 la_data_in[50]
*218 la_data_in[51]
*219 la_data_in[52]
*220 la_data_in[53]
*221 la_data_in[54]
*222 la_data_in[55]
*223 la_data_in[56]
*224 la_data_in[57]
*225 la_data_in[58]
*226 la_data_in[59]
*227 la_data_in[5]
*228 la_data_in[60]
*229 la_data_in[61]
*230 la_data_in[62]
*231 la_data_in[63]
*232 la_data_in[64]
*233 la_data_in[65]
*234 la_data_in[66]
*235 la_data_in[67]
*236 la_data_in[68]
*237 la_data_in[69]
*238 la_data_in[6]
*239 la_data_in[70]
*240 la_data_in[71]
*241 la_data_in[72]
*242 la_data_in[73]
*243 la_data_in[74]
*244 la_data_in[75]
*245 la_data_in[76]
*246 la_data_in[77]
*247 la_data_in[78]
*248 la_data_in[79]
*249 la_data_in[7]
*250 la_data_in[80]
*251 la_data_in[81]
*252 la_data_in[82]
*253 la_data_in[83]
*254 la_data_in[84]
*255 la_data_in[85]
*256 la_data_in[86]
*257 la_data_in[87]
*258 la_data_in[88]
*259 la_data_in[89]
*260 la_data_in[8]
*261 la_data_in[90]
*262 la_data_in[91]
*263 la_data_in[92]
*264 la_data_in[93]
*265 la_data_in[94]
*266 la_data_in[95]
*267 la_data_in[96]
*268 la_data_in[97]
*269 la_data_in[98]
*270 la_data_in[99]
*271 la_data_in[9]
*272 la_data_out[0]
*273 la_data_out[100]
*274 la_data_out[101]
*275 la_data_out[102]
*276 la_data_out[103]
*277 la_data_out[104]
*278 la_data_out[105]
*279 la_data_out[106]
*280 la_data_out[107]
*281 la_data_out[108]
*282 la_data_out[109]
*283 la_data_out[10]
*284 la_data_out[110]
*285 la_data_out[111]
*286 la_data_out[112]
*287 la_data_out[113]
*288 la_data_out[114]
*289 la_data_out[115]
*290 la_data_out[116]
*291 la_data_out[117]
*292 la_data_out[118]
*293 la_data_out[119]
*294 la_data_out[11]
*295 la_data_out[120]
*296 la_data_out[121]
*297 la_data_out[122]
*298 la_data_out[123]
*299 la_data_out[124]
*300 la_data_out[125]
*301 la_data_out[126]
*302 la_data_out[127]
*303 la_data_out[12]
*304 la_data_out[13]
*305 la_data_out[14]
*306 la_data_out[15]
*307 la_data_out[16]
*308 la_data_out[17]
*309 la_data_out[18]
*310 la_data_out[19]
*311 la_data_out[1]
*312 la_data_out[20]
*313 la_data_out[21]
*314 la_data_out[22]
*315 la_data_out[23]
*316 la_data_out[24]
*317 la_data_out[25]
*318 la_data_out[26]
*319 la_data_out[27]
*320 la_data_out[28]
*321 la_data_out[29]
*322 la_data_out[2]
*323 la_data_out[30]
*324 la_data_out[31]
*325 la_data_out[32]
*326 la_data_out[33]
*327 la_data_out[34]
*328 la_data_out[35]
*329 la_data_out[36]
*330 la_data_out[37]
*331 la_data_out[38]
*332 la_data_out[39]
*333 la_data_out[3]
*334 la_data_out[40]
*335 la_data_out[41]
*336 la_data_out[42]
*337 la_data_out[43]
*338 la_data_out[44]
*339 la_data_out[45]
*340 la_data_out[46]
*341 la_data_out[47]
*342 la_data_out[48]
*343 la_data_out[49]
*344 la_data_out[4]
*345 la_data_out[50]
*346 la_data_out[51]
*347 la_data_out[52]
*348 la_data_out[53]
*349 la_data_out[54]
*350 la_data_out[55]
*351 la_data_out[56]
*352 la_data_out[57]
*353 la_data_out[58]
*354 la_data_out[59]
*355 la_data_out[5]
*356 la_data_out[60]
*357 la_data_out[61]
*358 la_data_out[62]
*359 la_data_out[63]
*360 la_data_out[64]
*361 la_data_out[65]
*362 la_data_out[66]
*363 la_data_out[67]
*364 la_data_out[68]
*365 la_data_out[69]
*366 la_data_out[6]
*367 la_data_out[70]
*368 la_data_out[71]
*369 la_data_out[72]
*370 la_data_out[73]
*371 la_data_out[74]
*372 la_data_out[75]
*373 la_data_out[76]
*374 la_data_out[77]
*375 la_data_out[78]
*376 la_data_out[79]
*377 la_data_out[7]
*378 la_data_out[80]
*379 la_data_out[81]
*380 la_data_out[82]
*381 la_data_out[83]
*382 la_data_out[84]
*383 la_data_out[85]
*384 la_data_out[86]
*385 la_data_out[87]
*386 la_data_out[88]
*387 la_data_out[89]
*388 la_data_out[8]
*389 la_data_out[90]
*390 la_data_out[91]
*391 la_data_out[92]
*392 la_data_out[93]
*393 la_data_out[94]
*394 la_data_out[95]
*395 la_data_out[96]
*396 la_data_out[97]
*397 la_data_out[98]
*398 la_data_out[99]
*399 la_data_out[9]
*400 la_oenb[0]
*401 la_oenb[100]
*402 la_oenb[101]
*403 la_oenb[102]
*404 la_oenb[103]
*405 la_oenb[104]
*406 la_oenb[105]
*407 la_oenb[106]
*408 la_oenb[107]
*409 la_oenb[108]
*410 la_oenb[109]
*411 la_oenb[10]
*412 la_oenb[110]
*413 la_oenb[111]
*414 la_oenb[112]
*415 la_oenb[113]
*416 la_oenb[114]
*417 la_oenb[115]
*418 la_oenb[116]
*419 la_oenb[117]
*420 la_oenb[118]
*421 la_oenb[119]
*422 la_oenb[11]
*423 la_oenb[120]
*424 la_oenb[121]
*425 la_oenb[122]
*426 la_oenb[123]
*427 la_oenb[124]
*428 la_oenb[125]
*429 la_oenb[126]
*430 la_oenb[127]
*431 la_oenb[12]
*432 la_oenb[13]
*433 la_oenb[14]
*434 la_oenb[15]
*435 la_oenb[16]
*436 la_oenb[17]
*437 la_oenb[18]
*438 la_oenb[19]
*439 la_oenb[1]
*440 la_oenb[20]
*441 la_oenb[21]
*442 la_oenb[22]
*443 la_oenb[23]
*444 la_oenb[24]
*445 la_oenb[25]
*446 la_oenb[26]
*447 la_oenb[27]
*448 la_oenb[28]
*449 la_oenb[29]
*450 la_oenb[2]
*451 la_oenb[30]
*452 la_oenb[31]
*453 la_oenb[32]
*454 la_oenb[33]
*455 la_oenb[34]
*456 la_oenb[35]
*457 la_oenb[36]
*458 la_oenb[37]
*459 la_oenb[38]
*460 la_oenb[39]
*461 la_oenb[3]
*462 la_oenb[40]
*463 la_oenb[41]
*464 la_oenb[42]
*465 la_oenb[43]
*466 la_oenb[44]
*467 la_oenb[45]
*468 la_oenb[46]
*469 la_oenb[47]
*470 la_oenb[48]
*471 la_oenb[49]
*472 la_oenb[4]
*473 la_oenb[50]
*474 la_oenb[51]
*475 la_oenb[52]
*476 la_oenb[53]
*477 la_oenb[54]
*478 la_oenb[55]
*479 la_oenb[56]
*480 la_oenb[57]
*481 la_oenb[58]
*482 la_oenb[59]
*483 la_oenb[5]
*484 la_oenb[60]
*485 la_oenb[61]
*486 la_oenb[62]
*487 la_oenb[63]
*488 la_oenb[64]
*489 la_oenb[65]
*490 la_oenb[66]
*491 la_oenb[67]
*492 la_oenb[68]
*493 la_oenb[69]
*494 la_oenb[6]
*495 la_oenb[70]
*496 la_oenb[71]
*497 la_oenb[72]
*498 la_oenb[73]
*499 la_oenb[74]
*500 la_oenb[75]
*501 la_oenb[76]
*502 la_oenb[77]
*503 la_oenb[78]
*504 la_oenb[79]
*505 la_oenb[7]
*506 la_oenb[80]
*507 la_oenb[81]
*508 la_oenb[82]
*509 la_oenb[83]
*510 la_oenb[84]
*511 la_oenb[85]
*512 la_oenb[86]
*513 la_oenb[87]
*514 la_oenb[88]
*515 la_oenb[89]
*516 la_oenb[8]
*517 la_oenb[90]
*518 la_oenb[91]
*519 la_oenb[92]
*520 la_oenb[93]
*521 la_oenb[94]
*522 la_oenb[95]
*523 la_oenb[96]
*524 la_oenb[97]
*525 la_oenb[98]
*526 la_oenb[99]
*527 la_oenb[9]
*528 user_clock2
*529 user_irq[0]
*530 user_irq[1]
*531 user_irq[2]
*540 wb_clk_i
*541 wb_rst_i
*542 wbs_ack_o
*543 wbs_adr_i[0]
*544 wbs_adr_i[10]
*545 wbs_adr_i[11]
*546 wbs_adr_i[12]
*547 wbs_adr_i[13]
*548 wbs_adr_i[14]
*549 wbs_adr_i[15]
*550 wbs_adr_i[16]
*551 wbs_adr_i[17]
*552 wbs_adr_i[18]
*553 wbs_adr_i[19]
*554 wbs_adr_i[1]
*555 wbs_adr_i[20]
*556 wbs_adr_i[21]
*557 wbs_adr_i[22]
*558 wbs_adr_i[23]
*559 wbs_adr_i[24]
*560 wbs_adr_i[25]
*561 wbs_adr_i[26]
*562 wbs_adr_i[27]
*563 wbs_adr_i[28]
*564 wbs_adr_i[29]
*565 wbs_adr_i[2]
*566 wbs_adr_i[30]
*567 wbs_adr_i[31]
*568 wbs_adr_i[3]
*569 wbs_adr_i[4]
*570 wbs_adr_i[5]
*571 wbs_adr_i[6]
*572 wbs_adr_i[7]
*573 wbs_adr_i[8]
*574 wbs_adr_i[9]
*575 wbs_cyc_i
*576 wbs_dat_i[0]
*577 wbs_dat_i[10]
*578 wbs_dat_i[11]
*579 wbs_dat_i[12]
*580 wbs_dat_i[13]
*581 wbs_dat_i[14]
*582 wbs_dat_i[15]
*583 wbs_dat_i[16]
*584 wbs_dat_i[17]
*585 wbs_dat_i[18]
*586 wbs_dat_i[19]
*587 wbs_dat_i[1]
*588 wbs_dat_i[20]
*589 wbs_dat_i[21]
*590 wbs_dat_i[22]
*591 wbs_dat_i[23]
*592 wbs_dat_i[24]
*593 wbs_dat_i[25]
*594 wbs_dat_i[26]
*595 wbs_dat_i[27]
*596 wbs_dat_i[28]
*597 wbs_dat_i[29]
*598 wbs_dat_i[2]
*599 wbs_dat_i[30]
*600 wbs_dat_i[31]
*601 wbs_dat_i[3]
*602 wbs_dat_i[4]
*603 wbs_dat_i[5]
*604 wbs_dat_i[6]
*605 wbs_dat_i[7]
*606 wbs_dat_i[8]
*607 wbs_dat_i[9]
*608 wbs_dat_o[0]
*609 wbs_dat_o[10]
*610 wbs_dat_o[11]
*611 wbs_dat_o[12]
*612 wbs_dat_o[13]
*613 wbs_dat_o[14]
*614 wbs_dat_o[15]
*615 wbs_dat_o[16]
*616 wbs_dat_o[17]
*617 wbs_dat_o[18]
*618 wbs_dat_o[19]
*619 wbs_dat_o[1]
*620 wbs_dat_o[20]
*621 wbs_dat_o[21]
*622 wbs_dat_o[22]
*623 wbs_dat_o[23]
*624 wbs_dat_o[24]
*625 wbs_dat_o[25]
*626 wbs_dat_o[26]
*627 wbs_dat_o[27]
*628 wbs_dat_o[28]
*629 wbs_dat_o[29]
*630 wbs_dat_o[2]
*631 wbs_dat_o[30]
*632 wbs_dat_o[31]
*633 wbs_dat_o[3]
*634 wbs_dat_o[4]
*635 wbs_dat_o[5]
*636 wbs_dat_o[6]
*637 wbs_dat_o[7]
*638 wbs_dat_o[8]
*639 wbs_dat_o[9]
*640 wbs_sel_i[0]
*641 wbs_sel_i[1]
*642 wbs_sel_i[2]
*643 wbs_sel_i[3]
*644 wbs_stb_i
*645 wbs_we_i
*646 mprj

*PORTS
analog_io[0] I
analog_io[10] I
analog_io[11] I
analog_io[12] I
analog_io[13] I
analog_io[14] I
analog_io[15] I
analog_io[16] I
analog_io[17] I
analog_io[18] I
analog_io[19] I
analog_io[1] I
analog_io[20] I
analog_io[21] I
analog_io[22] I
analog_io[23] I
analog_io[24] I
analog_io[25] I
analog_io[26] I
analog_io[27] I
analog_io[28] I
analog_io[2] I
analog_io[3] I
analog_io[4] I
analog_io[5] I
analog_io[6] I
analog_io[7] I
analog_io[8] I
analog_io[9] I
io_in[0] I
io_in[10] I
io_in[11] I
io_in[12] I
io_in[13] I
io_in[14] I
io_in[15] I
io_in[16] I
io_in[17] I
io_in[18] I
io_in[19] I
io_in[1] I
io_in[20] I
io_in[21] I
io_in[22] I
io_in[23] I
io_in[24] I
io_in[25] I
io_in[26] I
io_in[27] I
io_in[28] I
io_in[29] I
io_in[2] I
io_in[30] I
io_in[31] I
io_in[32] I
io_in[33] I
io_in[34] I
io_in[35] I
io_in[36] I
io_in[37] I
io_in[3] I
io_in[4] I
io_in[5] I
io_in[6] I
io_in[7] I
io_in[8] I
io_in[9] I
io_oeb[0] O
io_oeb[10] O
io_oeb[11] O
io_oeb[12] O
io_oeb[13] O
io_oeb[14] O
io_oeb[15] O
io_oeb[16] O
io_oeb[17] O
io_oeb[18] O
io_oeb[19] O
io_oeb[1] O
io_oeb[20] O
io_oeb[21] O
io_oeb[22] O
io_oeb[23] O
io_oeb[24] O
io_oeb[25] O
io_oeb[26] O
io_oeb[27] O
io_oeb[28] O
io_oeb[29] O
io_oeb[2] O
io_oeb[30] O
io_oeb[31] O
io_oeb[32] O
io_oeb[33] O
io_oeb[34] O
io_oeb[35] O
io_oeb[36] O
io_oeb[37] O
io_oeb[3] O
io_oeb[4] O
io_oeb[5] O
io_oeb[6] O
io_oeb[7] O
io_oeb[8] O
io_oeb[9] O
io_out[0] O
io_out[10] O
io_out[11] O
io_out[12] O
io_out[13] O
io_out[14] O
io_out[15] O
io_out[16] O
io_out[17] O
io_out[18] O
io_out[19] O
io_out[1] O
io_out[20] O
io_out[21] O
io_out[22] O
io_out[23] O
io_out[24] O
io_out[25] O
io_out[26] O
io_out[27] O
io_out[28] O
io_out[29] O
io_out[2] O
io_out[30] O
io_out[31] O
io_out[32] O
io_out[33] O
io_out[34] O
io_out[35] O
io_out[36] O
io_out[37] O
io_out[3] O
io_out[4] O
io_out[5] O
io_out[6] O
io_out[7] O
io_out[8] O
io_out[9] O
la_data_in[0] I
la_data_in[100] I
la_data_in[101] I
la_data_in[102] I
la_data_in[103] I
la_data_in[104] I
la_data_in[105] I
la_data_in[106] I
la_data_in[107] I
la_data_in[108] I
la_data_in[109] I
la_data_in[10] I
la_data_in[110] I
la_data_in[111] I
la_data_in[112] I
la_data_in[113] I
la_data_in[114] I
la_data_in[115] I
la_data_in[116] I
la_data_in[117] I
la_data_in[118] I
la_data_in[119] I
la_data_in[11] I
la_data_in[120] I
la_data_in[121] I
la_data_in[122] I
la_data_in[123] I
la_data_in[124] I
la_data_in[125] I
la_data_in[126] I
la_data_in[127] I
la_data_in[12] I
la_data_in[13] I
la_data_in[14] I
la_data_in[15] I
la_data_in[16] I
la_data_in[17] I
la_data_in[18] I
la_data_in[19] I
la_data_in[1] I
la_data_in[20] I
la_data_in[21] I
la_data_in[22] I
la_data_in[23] I
la_data_in[24] I
la_data_in[25] I
la_data_in[26] I
la_data_in[27] I
la_data_in[28] I
la_data_in[29] I
la_data_in[2] I
la_data_in[30] I
la_data_in[31] I
la_data_in[32] I
la_data_in[33] I
la_data_in[34] I
la_data_in[35] I
la_data_in[36] I
la_data_in[37] I
la_data_in[38] I
la_data_in[39] I
la_data_in[3] I
la_data_in[40] I
la_data_in[41] I
la_data_in[42] I
la_data_in[43] I
la_data_in[44] I
la_data_in[45] I
la_data_in[46] I
la_data_in[47] I
la_data_in[48] I
la_data_in[49] I
la_data_in[4] I
la_data_in[50] I
la_data_in[51] I
la_data_in[52] I
la_data_in[53] I
la_data_in[54] I
la_data_in[55] I
la_data_in[56] I
la_data_in[57] I
la_data_in[58] I
la_data_in[59] I
la_data_in[5] I
la_data_in[60] I
la_data_in[61] I
la_data_in[62] I
la_data_in[63] I
la_data_in[64] I
la_data_in[65] I
la_data_in[66] I
la_data_in[67] I
la_data_in[68] I
la_data_in[69] I
la_data_in[6] I
la_data_in[70] I
la_data_in[71] I
la_data_in[72] I
la_data_in[73] I
la_data_in[74] I
la_data_in[75] I
la_data_in[76] I
la_data_in[77] I
la_data_in[78] I
la_data_in[79] I
la_data_in[7] I
la_data_in[80] I
la_data_in[81] I
la_data_in[82] I
la_data_in[83] I
la_data_in[84] I
la_data_in[85] I
la_data_in[86] I
la_data_in[87] I
la_data_in[88] I
la_data_in[89] I
la_data_in[8] I
la_data_in[90] I
la_data_in[91] I
la_data_in[92] I
la_data_in[93] I
la_data_in[94] I
la_data_in[95] I
la_data_in[96] I
la_data_in[97] I
la_data_in[98] I
la_data_in[99] I
la_data_in[9] I
la_data_out[0] O
la_data_out[100] O
la_data_out[101] O
la_data_out[102] O
la_data_out[103] O
la_data_out[104] O
la_data_out[105] O
la_data_out[106] O
la_data_out[107] O
la_data_out[108] O
la_data_out[109] O
la_data_out[10] O
la_data_out[110] O
la_data_out[111] O
la_data_out[112] O
la_data_out[113] O
la_data_out[114] O
la_data_out[115] O
la_data_out[116] O
la_data_out[117] O
la_data_out[118] O
la_data_out[119] O
la_data_out[11] O
la_data_out[120] O
la_data_out[121] O
la_data_out[122] O
la_data_out[123] O
la_data_out[124] O
la_data_out[125] O
la_data_out[126] O
la_data_out[127] O
la_data_out[12] O
la_data_out[13] O
la_data_out[14] O
la_data_out[15] O
la_data_out[16] O
la_data_out[17] O
la_data_out[18] O
la_data_out[19] O
la_data_out[1] O
la_data_out[20] O
la_data_out[21] O
la_data_out[22] O
la_data_out[23] O
la_data_out[24] O
la_data_out[25] O
la_data_out[26] O
la_data_out[27] O
la_data_out[28] O
la_data_out[29] O
la_data_out[2] O
la_data_out[30] O
la_data_out[31] O
la_data_out[32] O
la_data_out[33] O
la_data_out[34] O
la_data_out[35] O
la_data_out[36] O
la_data_out[37] O
la_data_out[38] O
la_data_out[39] O
la_data_out[3] O
la_data_out[40] O
la_data_out[41] O
la_data_out[42] O
la_data_out[43] O
la_data_out[44] O
la_data_out[45] O
la_data_out[46] O
la_data_out[47] O
la_data_out[48] O
la_data_out[49] O
la_data_out[4] O
la_data_out[50] O
la_data_out[51] O
la_data_out[52] O
la_data_out[53] O
la_data_out[54] O
la_data_out[55] O
la_data_out[56] O
la_data_out[57] O
la_data_out[58] O
la_data_out[59] O
la_data_out[5] O
la_data_out[60] O
la_data_out[61] O
la_data_out[62] O
la_data_out[63] O
la_data_out[64] O
la_data_out[65] O
la_data_out[66] O
la_data_out[67] O
la_data_out[68] O
la_data_out[69] O
la_data_out[6] O
la_data_out[70] O
la_data_out[71] O
la_data_out[72] O
la_data_out[73] O
la_data_out[74] O
la_data_out[75] O
la_data_out[76] O
la_data_out[77] O
la_data_out[78] O
la_data_out[79] O
la_data_out[7] O
la_data_out[80] O
la_data_out[81] O
la_data_out[82] O
la_data_out[83] O
la_data_out[84] O
la_data_out[85] O
la_data_out[86] O
la_data_out[87] O
la_data_out[88] O
la_data_out[89] O
la_data_out[8] O
la_data_out[90] O
la_data_out[91] O
la_data_out[92] O
la_data_out[93] O
la_data_out[94] O
la_data_out[95] O
la_data_out[96] O
la_data_out[97] O
la_data_out[98] O
la_data_out[99] O
la_data_out[9] O
la_oenb[0] I
la_oenb[100] I
la_oenb[101] I
la_oenb[102] I
la_oenb[103] I
la_oenb[104] I
la_oenb[105] I
la_oenb[106] I
la_oenb[107] I
la_oenb[108] I
la_oenb[109] I
la_oenb[10] I
la_oenb[110] I
la_oenb[111] I
la_oenb[112] I
la_oenb[113] I
la_oenb[114] I
la_oenb[115] I
la_oenb[116] I
la_oenb[117] I
la_oenb[118] I
la_oenb[119] I
la_oenb[11] I
la_oenb[120] I
la_oenb[121] I
la_oenb[122] I
la_oenb[123] I
la_oenb[124] I
la_oenb[125] I
la_oenb[126] I
la_oenb[127] I
la_oenb[12] I
la_oenb[13] I
la_oenb[14] I
la_oenb[15] I
la_oenb[16] I
la_oenb[17] I
la_oenb[18] I
la_oenb[19] I
la_oenb[1] I
la_oenb[20] I
la_oenb[21] I
la_oenb[22] I
la_oenb[23] I
la_oenb[24] I
la_oenb[25] I
la_oenb[26] I
la_oenb[27] I
la_oenb[28] I
la_oenb[29] I
la_oenb[2] I
la_oenb[30] I
la_oenb[31] I
la_oenb[32] I
la_oenb[33] I
la_oenb[34] I
la_oenb[35] I
la_oenb[36] I
la_oenb[37] I
la_oenb[38] I
la_oenb[39] I
la_oenb[3] I
la_oenb[40] I
la_oenb[41] I
la_oenb[42] I
la_oenb[43] I
la_oenb[44] I
la_oenb[45] I
la_oenb[46] I
la_oenb[47] I
la_oenb[48] I
la_oenb[49] I
la_oenb[4] I
la_oenb[50] I
la_oenb[51] I
la_oenb[52] I
la_oenb[53] I
la_oenb[54] I
la_oenb[55] I
la_oenb[56] I
la_oenb[57] I
la_oenb[58] I
la_oenb[59] I
la_oenb[5] I
la_oenb[60] I
la_oenb[61] I
la_oenb[62] I
la_oenb[63] I
la_oenb[64] I
la_oenb[65] I
la_oenb[66] I
la_oenb[67] I
la_oenb[68] I
la_oenb[69] I
la_oenb[6] I
la_oenb[70] I
la_oenb[71] I
la_oenb[72] I
la_oenb[73] I
la_oenb[74] I
la_oenb[75] I
la_oenb[76] I
la_oenb[77] I
la_oenb[78] I
la_oenb[79] I
la_oenb[7] I
la_oenb[80] I
la_oenb[81] I
la_oenb[82] I
la_oenb[83] I
la_oenb[84] I
la_oenb[85] I
la_oenb[86] I
la_oenb[87] I
la_oenb[88] I
la_oenb[89] I
la_oenb[8] I
la_oenb[90] I
la_oenb[91] I
la_oenb[92] I
la_oenb[93] I
la_oenb[94] I
la_oenb[95] I
la_oenb[96] I
la_oenb[97] I
la_oenb[98] I
la_oenb[99] I
la_oenb[9] I
user_clock2 I
user_irq[0] O
user_irq[1] O
user_irq[2] O
wb_clk_i I
wb_rst_i I
wbs_ack_o O
wbs_adr_i[0] I
wbs_adr_i[10] I
wbs_adr_i[11] I
wbs_adr_i[12] I
wbs_adr_i[13] I
wbs_adr_i[14] I
wbs_adr_i[15] I
wbs_adr_i[16] I
wbs_adr_i[17] I
wbs_adr_i[18] I
wbs_adr_i[19] I
wbs_adr_i[1] I
wbs_adr_i[20] I
wbs_adr_i[21] I
wbs_adr_i[22] I
wbs_adr_i[23] I
wbs_adr_i[24] I
wbs_adr_i[25] I
wbs_adr_i[26] I
wbs_adr_i[27] I
wbs_adr_i[28] I
wbs_adr_i[29] I
wbs_adr_i[2] I
wbs_adr_i[30] I
wbs_adr_i[31] I
wbs_adr_i[3] I
wbs_adr_i[4] I
wbs_adr_i[5] I
wbs_adr_i[6] I
wbs_adr_i[7] I
wbs_adr_i[8] I
wbs_adr_i[9] I
wbs_cyc_i I
wbs_dat_i[0] I
wbs_dat_i[10] I
wbs_dat_i[11] I
wbs_dat_i[12] I
wbs_dat_i[13] I
wbs_dat_i[14] I
wbs_dat_i[15] I
wbs_dat_i[16] I
wbs_dat_i[17] I
wbs_dat_i[18] I
wbs_dat_i[19] I
wbs_dat_i[1] I
wbs_dat_i[20] I
wbs_dat_i[21] I
wbs_dat_i[22] I
wbs_dat_i[23] I
wbs_dat_i[24] I
wbs_dat_i[25] I
wbs_dat_i[26] I
wbs_dat_i[27] I
wbs_dat_i[28] I
wbs_dat_i[29] I
wbs_dat_i[2] I
wbs_dat_i[30] I
wbs_dat_i[31] I
wbs_dat_i[3] I
wbs_dat_i[4] I
wbs_dat_i[5] I
wbs_dat_i[6] I
wbs_dat_i[7] I
wbs_dat_i[8] I
wbs_dat_i[9] I
wbs_dat_o[0] O
wbs_dat_o[10] O
wbs_dat_o[11] O
wbs_dat_o[12] O
wbs_dat_o[13] O
wbs_dat_o[14] O
wbs_dat_o[15] O
wbs_dat_o[16] O
wbs_dat_o[17] O
wbs_dat_o[18] O
wbs_dat_o[19] O
wbs_dat_o[1] O
wbs_dat_o[20] O
wbs_dat_o[21] O
wbs_dat_o[22] O
wbs_dat_o[23] O
wbs_dat_o[24] O
wbs_dat_o[25] O
wbs_dat_o[26] O
wbs_dat_o[27] O
wbs_dat_o[28] O
wbs_dat_o[29] O
wbs_dat_o[2] O
wbs_dat_o[30] O
wbs_dat_o[31] O
wbs_dat_o[3] O
wbs_dat_o[4] O
wbs_dat_o[5] O
wbs_dat_o[6] O
wbs_dat_o[7] O
wbs_dat_o[8] O
wbs_dat_o[9] O
wbs_sel_i[0] I
wbs_sel_i[1] I
wbs_sel_i[2] I
wbs_sel_i[3] I
wbs_stb_i I
wbs_we_i I

*D_NET *30 0.0154328
*CONN
*P io_in[0] I
*I *646:io_in[0] I *D senseedge_top
*CAP
1 io_in[0] 0.00540461
2 *646:io_in[0] 0.00540461
3 *646:io_in[0] io_out[0] 0.00462362
*RES
1 io_in[0] *646:io_in[0] 27.1945 
*END

*D_NET *41 0.0303037
*CONN
*P io_in[1] I
*I *646:io_in[1] I *D senseedge_top
*CAP
1 io_in[1] 0.0084111
2 *646:io_in[1] 0.0084111
3 *646:io_in[1] io_oeb[0] 0.0101567
4 *646:io_in[1] io_oeb[1] 0.00178567
5 *646:io_in[1] *52:13 0.00153915
*RES
1 io_in[1] *646:io_in[1] 44.9542 
*END

*D_NET *52 0.0566061
*CONN
*P io_in[2] I
*I *646:io_in[2] I *D senseedge_top
*CAP
1 io_in[2] 0.000148024
2 *646:io_in[2] 0
3 *52:13 0.00802912
4 *52:11 0.00817714
5 *52:13 io_oeb[1] 0.00175226
6 *52:13 io_oeb[2] 0.00174371
7 *52:13 io_oeb[3] 0.000228991
8 *52:13 *79:35 0.00377866
9 *52:13 *90:36 0.00149654
10 *52:13 *117:28 0.0040038
11 *52:13 *128:6 0.0212122
12 *52:13 *137:48 0.0044965
13 *646:io_in[1] *52:13 0.00153915
*RES
1 io_in[2] *52:11 3.9223 
2 *52:11 *52:13 54.6986 
3 *52:13 *646:io_in[2] 3.41 
*END

*D_NET *53 0.0735633
*CONN
*P io_in[30] I
*I *646:io_in[8] I *D senseedge_top
*CAP
1 io_in[30] 0.00150657
2 *646:io_in[8] 0.00171366
3 *53:19 0.0341171
4 *53:17 0.0339101
5 *53:19 *55:23 0.00231581
*RES
1 io_in[30] *53:17 5.31864 
2 *53:17 *53:19 105.515 
3 *53:19 *646:io_in[8] 5.45011 
*END

*D_NET *54 0.0746311
*CONN
*P io_in[31] I
*I *646:io_in[9] I *D senseedge_top
*CAP
1 io_in[31] 0.00216628
2 *646:io_in[9] 0.00259507
3 *54:23 0.0340892
4 *54:21 0.0336604
5 *54:21 *646:io_in[11] 0.00188956
6 *54:21 *130:6 0.000154541
7 *54:23 *56:21 7.60308e-05
*RES
1 io_in[31] *54:21 6.24028 
2 *54:21 *54:23 97.525 
3 *54:23 *646:io_in[9] 5.63855 
*END

*D_NET *55 0.0651256
*CONN
*P io_in[32] I
*I *646:io_in[10] I *D senseedge_top
*CAP
1 io_in[32] 0.00140215
2 *646:io_in[10] 0.00118538
3 *55:23 0.0297516
4 *55:21 0.0299683
5 *646:io_in[10] *130:6 0.000138425
6 *55:21 *131:6 0.000322558
7 *55:21 *132:6 4.1378e-05
8 *53:19 *55:23 0.00231581
*RES
1 io_in[32] *55:21 5.70573 
2 *55:21 *55:23 90.6003 
3 *55:23 *646:io_in[10] 5.31563 
*END

*D_NET *56 0.0649921
*CONN
*P io_in[33] I
*I *646:io_in[11] I *D senseedge_top
*CAP
1 io_in[33] 0.00281396
2 *646:io_in[11] 0.0021998
3 *56:21 0.0283798
4 *56:19 0.028994
5 *646:io_in[11] *130:6 0.000181808
6 *56:19 *95:17 0.000100387
7 *56:19 *132:6 0.000110717
8 *56:19 *133:6 0.000246133
9 *54:21 *646:io_in[11] 0.00188956
10 *54:23 *56:21 7.60308e-05
*RES
1 io_in[33] *56:19 6.34898 
2 *56:19 *56:21 82.6103 
3 *56:21 *646:io_in[11] 5.82414 
*END

*D_NET *57 0.0553385
*CONN
*P io_in[34] I
*I *646:io_in[12] I *D senseedge_top
*CAP
1 io_in[34] 0.00177159
2 *646:io_in[12] 0.00175634
3 *57:17 0.0220583
4 *57:15 0.0220735
5 *646:io_in[12] *132:6 0
6 *57:15 io_out[34] 3.26217e-05
7 *57:17 *95:19 0.00764619
*RES
1 io_in[34] *57:15 4.76065 
2 *57:15 *57:17 74.6203 
3 *57:17 *646:io_in[12] 6.54487 
*END

*D_NET *58 0.0546231
*CONN
*P io_in[35] I
*I *646:io_in[13] I *D senseedge_top
*CAP
1 io_in[35] 0.0029191
2 *646:io_in[13] 0.00259312
3 *58:21 0.0239546
4 *58:19 0.0242806
5 *646:io_in[13] *133:6 0.000267297
6 *58:19 *134:14 0.000285914
7 *58:19 *135:6 0.000322558
*RES
1 io_in[35] *58:19 6.81127 
2 *58:19 *58:21 65.565 
3 *58:21 *646:io_in[13] 5.74509 
*END

*D_NET *59 0.0371598
*CONN
*P io_in[36] I
*I *646:io_in[14] I *D senseedge_top
*CAP
1 io_in[36] 0.00125366
2 *646:io_in[14] 0.00123758
3 *59:19 0.0170461
4 *59:17 0.0170622
5 *646:io_in[14] io_oeb[34] 0
6 *59:17 *646:io_in[15] 0.000141442
7 *59:19 *646:io_in[15] 0.000418942
*RES
1 io_in[36] *59:17 5.19572 
2 *59:17 *59:19 50.1177 
3 *59:19 *646:io_in[14] 4.96698 
*END

*D_NET *60 0.0269046
*CONN
*P io_in[37] I
*I *646:io_in[15] I *D senseedge_top
*CAP
1 io_in[37] 0.0129147
2 *646:io_in[15] 0.0129147
3 *646:io_in[15] io_oeb[36] 0.000192142
4 *646:io_in[15] io_out[37] 0.000322558
5 *59:17 *646:io_in[15] 0.000141442
6 *59:19 *646:io_in[15] 0.000418942
*RES
1 io_in[37] *646:io_in[15] 42.7244 
*END

*D_NET *61 0.0641446
*CONN
*P io_in[3] I
*I *646:io_in[3] I *D senseedge_top
*CAP
1 io_in[3] 0.00028467
2 *646:io_in[3] 0
3 *61:13 0.0147189
4 *61:11 0.0150035
5 *61:13 *99:28 0.000540896
6 *61:13 *128:6 0.0190007
7 *61:13 *138:6 0.0145959
*RES
1 io_in[3] *61:11 4.21057 
2 *61:11 *61:13 72.0635 
3 *61:13 *646:io_in[3] 3.41 
*END

*D_NET *62 0.0728911
*CONN
*P io_in[4] I
*I *646:io_in[4] I *D senseedge_top
*CAP
1 io_in[4] 0.00120975
2 *646:io_in[4] 0.000256325
3 *62:13 0.0200177
4 *62:11 0.0209712
5 *646:io_in[4] *100:16 0.000228481
6 *62:11 *90:12 0.000945355
7 *62:13 io_oeb[4] 0.00113508
8 *62:13 io_oeb[5] 0.00134802
9 *62:13 *64:9 0.0123849
10 *62:13 *99:10 0.00675138
11 *62:13 *99:20 0.000585885
12 *62:13 *99:28 0.00502083
13 *62:13 *100:62 0.000215494
14 *62:13 *138:6 0.0018207
*RES
1 io_in[4] *62:11 27.6481 
2 *62:11 *62:13 484.179 
3 *62:13 *646:io_in[4] 3.94267 
*END

*D_NET *63 0.0826813
*CONN
*P io_in[5] I
*I *646:io_in[5] I *D senseedge_top
*CAP
1 io_in[5] 0.00409405
2 *646:io_in[5] 0.00375231
3 *63:31 0.0367353
4 *63:29 0.037077
5 *646:io_in[5] *101:14 0.000165083
6 *646:io_in[5] *141:46 0.000275618
7 *63:29 io_oeb[4] 0.000468748
8 *63:29 *99:20 3.13831e-06
9 *63:29 *100:62 7.59294e-05
10 *63:29 *137:22 3.41111e-05
*RES
1 io_in[5] *63:29 6.992 
2 *63:29 *63:31 105.515 
3 *63:31 *646:io_in[5] 6.15527 
*END

*D_NET *64 0.126444
*CONN
*P io_in[6] I
*I *646:io_in[6] I *D senseedge_top
*CAP
1 io_in[6] 2.81398e-05
2 *646:io_in[6] 0.000267681
3 *64:9 0.0202908
4 *64:7 0.0200512
5 *646:io_in[6] *103:40 0.000228481
6 *64:9 *65:13 0.0381481
7 *64:9 *99:10 0.000447581
8 *64:9 *100:16 0.00476686
9 *64:9 *100:52 0.00285874
10 *64:9 *101:8 0.00046562
11 *64:9 *101:14 0.000204975
12 *64:9 *101:74 0.000456577
13 *64:9 *102:36 0.000215614
14 *64:9 *102:38 0.011741
15 *64:9 *103:40 0.00485069
16 *64:9 *103:56 0.00263068
17 *64:9 *141:46 0.00640616
18 *62:13 *64:9 0.0123849
*RES
1 io_in[6] *64:7 3.46953 
2 *64:7 *64:9 705.625 
3 *64:9 *646:io_in[6] 3.94267 
*END

*D_NET *65 0.119376
*CONN
*P io_in[7] I
*I *646:io_in[7] I *D senseedge_top
*CAP
1 io_in[7] 0.000180049
2 *646:io_in[7] 0.000181471
3 *65:13 0.0239281
4 *65:11 0.0239267
5 *646:io_in[7] *103:8 0.000228481
6 *65:13 io_out[7] 0.00313098
7 *65:13 *100:16 0.000955504
8 *65:13 *101:8 0.00101591
9 *65:13 *102:24 0.000614001
10 *65:13 *103:22 0.000858635
11 *65:13 *103:30 1.53887e-05
12 *65:13 *103:58 0.0132405
13 *65:13 *140:20 0.000305586
14 *65:13 *141:12 0.00073911
15 *65:13 *141:28 0.00522089
16 *65:13 *141:38 0.00273047
17 *65:13 *141:46 0.00395602
18 *64:9 *65:13 0.0381481
*RES
1 io_in[7] *65:11 3.95833 
2 *65:11 *65:13 744.482 
3 *65:13 *646:io_in[7] 3.94267 
*END

*D_NET *68 0.0271755
*CONN
*P io_oeb[0] O
*I *646:io_oeb[0] O *D senseedge_top
*CAP
1 io_oeb[0] 0.00592946
2 *646:io_oeb[0] 0.00592946
3 io_oeb[0] io_oeb[1] 9.72742e-05
4 io_oeb[0] io_out[0] 0.00400217
5 io_oeb[0] io_out[1] 0.00106044
6 io_oeb[0] *117:28 0
7 *646:io_in[1] io_oeb[0] 0.0101567
*RES
1 *646:io_oeb[0] io_oeb[0] 39.1638 
*END

*D_NET *79 0.0424434
*CONN
*P io_oeb[1] O
*I *646:io_oeb[1] O *D senseedge_top
*CAP
1 io_oeb[1] 0.00772188
2 *646:io_oeb[1] 0.00342784
3 *79:35 0.0111497
4 io_oeb[1] *117:28 0.00877661
5 *79:35 io_oeb[2] 0.00395344
6 io_oeb[0] io_oeb[1] 9.72742e-05
7 *646:io_in[1] io_oeb[1] 0.00178567
8 *52:13 io_oeb[1] 0.00175226
9 *52:13 *79:35 0.00377866
*RES
1 *646:io_oeb[1] *79:35 49.8278 
2 *79:35 io_oeb[1] 39.5385 
*END

*D_NET *90 0.0636792
*CONN
*P io_oeb[2] O
*I *646:io_oeb[2] O *D senseedge_top
*CAP
1 io_oeb[2] 0.00585193
2 *646:io_oeb[2] 0.00351851
3 *90:36 0.00929757
4 *90:12 0.00696414
5 io_oeb[2] *128:6 0.00290804
6 io_oeb[2] *137:48 0.000446561
7 *90:12 io_oeb[4] 0.000789523
8 *90:12 *99:28 0.0140476
9 *90:12 *137:38 0.00757481
10 *90:36 io_oeb[3] 0.00139099
11 *90:36 *99:28 0.000213759
12 *90:36 *137:38 0.000268938
13 *90:36 *137:48 0.00226778
14 *52:13 io_oeb[2] 0.00174371
15 *52:13 *90:36 0.00149654
16 *62:11 *90:12 0.000945355
17 *79:35 io_oeb[2] 0.00395344
*RES
1 *646:io_oeb[2] *90:12 39.6567 
2 *90:12 *90:36 47.4369 
3 *90:36 io_oeb[2] 34.9974 
*END

*D_NET *91 0.0761743
*CONN
*P io_oeb[30] O
*I *646:io_oeb[8] O *D senseedge_top
*CAP
1 io_oeb[30] 0.00506675
2 *646:io_oeb[8] 0.00357344
3 *91:12 0.0343955
4 *91:10 0.0329022
5 io_oeb[30] *130:6 0.000236455
*RES
1 *646:io_oeb[8] *91:10 5.13259 
2 *91:10 *91:12 93.2637 
3 *91:12 io_oeb[30] 9.472 
*END

*D_NET *92 0.0829852
*CONN
*P io_oeb[31] O
*I *646:io_oeb[9] O *D senseedge_top
*CAP
1 io_oeb[31] 0.0051038
2 *646:io_oeb[9] 0.00510376
3 *92:19 0.0361528
4 *92:17 0.0361527
5 io_oeb[31] *131:6 0.000246133
6 io_oeb[31] *132:6 0.000110717
7 *92:17 *130:6 0.000115221
8 *92:19 *129:18 0
*RES
1 *646:io_oeb[9] *92:17 6.71019 
2 *92:17 *92:19 86.8717 
3 *92:19 io_oeb[31] 6.93892 
*END

*D_NET *93 0.0673081
*CONN
*P io_oeb[32] O
*I *646:io_oeb[10] O *D senseedge_top
*CAP
1 io_oeb[32] 0.00427462
2 *646:io_oeb[10] 0.00441144
3 *93:19 0.0291025
4 *93:17 0.0292393
5 io_oeb[32] *132:6 0.000138282
6 *93:17 *130:6 0.000142048
*RES
1 *646:io_oeb[10] *93:17 6.2301 
2 *93:17 *93:19 78.8817 
3 *93:19 io_oeb[32] 6.63358 
*END

*D_NET *94 0.070779
*CONN
*P io_oeb[33] O
*I *646:io_oeb[11] O *D senseedge_top
*CAP
1 io_oeb[33] 0.00476881
2 *646:io_oeb[11] 0.00489812
3 *94:17 0.0304914
4 *94:15 0.0306207
*RES
1 *646:io_oeb[11] *94:15 5.91746 
2 *94:15 *94:17 71.4243 
3 *94:17 io_oeb[33] 5.8437 
*END

*D_NET *95 0.0501119
*CONN
*P io_oeb[34] O
*I *646:io_oeb[12] O *D senseedge_top
*CAP
1 io_oeb[34] 0.00159448
2 *646:io_oeb[12] 0.00146213
3 *95:19 0.0195239
4 *95:17 0.0193915
5 io_oeb[34] *134:14 0.000251207
6 *95:17 *132:6 0.000142048
7 *646:io_in[14] io_oeb[34] 0
8 *56:19 *95:17 0.000100387
9 *57:17 *95:19 0.00764619
*RES
1 *646:io_oeb[12] *95:17 5.5992 
2 *95:17 *95:19 62.369 
3 *95:19 io_oeb[34] 6.25406 
*END

*D_NET *96 0.0513136
*CONN
*P io_oeb[35] O
*I *646:io_oeb[13] O *D senseedge_top
*CAP
1 io_oeb[35] 0.00401683
2 *646:io_oeb[13] 0.00378312
3 *96:14 0.021596
4 *96:12 0.0213623
5 io_oeb[35] io_oeb[36] 0.000156419
6 io_oeb[35] *135:6 0.000398983
7 *96:12 *134:12 0
*RES
1 *646:io_oeb[13] *96:12 5.43508 
2 *96:12 *96:14 55.977 
3 *96:14 io_oeb[35] 6.77843 
*END

*D_NET *97 0.0331323
*CONN
*P io_oeb[36] O
*I *646:io_oeb[14] O *D senseedge_top
*CAP
1 io_oeb[36] 0.00833321
2 *646:io_oeb[14] 0.00833321
3 io_oeb[36] io_out[36] 0.000204598
4 io_oeb[36] io_out[37] 0.00275433
5 io_oeb[36] *135:6 0.0131584
6 io_oeb[35] io_oeb[36] 0.000156419
7 *646:io_in[15] io_oeb[36] 0.000192142
*RES
1 *646:io_oeb[14] io_oeb[36] 39.9161 
*END

*D_NET *98 0.0144925
*CONN
*P io_oeb[37] O
*I *646:io_oeb[15] O *D senseedge_top
*CAP
1 io_oeb[37] 0.0049586
2 *646:io_oeb[15] 0.0049586
3 io_oeb[37] io_out[37] 0.00457528
*RES
1 *646:io_oeb[15] io_oeb[37] 26.9188 
*END

*D_NET *99 0.105967
*CONN
*P io_oeb[3] O
*I *646:io_oeb[3] O *D senseedge_top
*CAP
1 io_oeb[3] 0.000652108
2 *646:io_oeb[3] 0.00449965
3 *99:28 0.00473625
4 *99:20 0.00440163
5 *99:10 0.00481713
6 io_oeb[3] *137:48 0.000112823
7 *99:10 io_oeb[4] 4.65519e-05
8 *99:10 io_oeb[5] 0.000160692
9 *99:10 *100:52 0.00566557
10 *99:10 *100:62 0.0116019
11 *99:10 *101:88 7.47582e-05
12 *99:10 *137:22 0.000224446
13 *99:10 *138:6 0.0198427
14 *99:28 io_oeb[4] 0.00214279
15 *99:28 *128:6 0.00737794
16 *99:28 *137:38 0.000756477
17 *99:28 *138:6 0.00962281
18 *52:13 io_oeb[3] 0.000228991
19 *61:13 *99:28 0.000540896
20 *62:13 *99:10 0.00675138
21 *62:13 *99:20 0.000585885
22 *62:13 *99:28 0.00502083
23 *63:29 *99:20 3.13831e-06
24 *64:9 *99:10 0.000447581
25 *90:12 *99:28 0.0140476
26 *90:36 io_oeb[3] 0.00139099
27 *90:36 *99:28 0.000213759
*RES
1 *646:io_oeb[3] *99:10 48.285 
2 *99:10 *99:20 17.7237 
3 *99:20 *99:28 44.5563 
4 *99:28 io_oeb[3] 23.0231 
*END

*D_NET *100 0.107864
*CONN
*P io_oeb[4] O
*I *646:io_oeb[4] O *D senseedge_top
*CAP
1 io_oeb[4] 0.00248223
2 *646:io_oeb[4] 0.00683968
3 *100:62 0.00602677
4 *100:52 0.00663889
5 *100:16 0.00993403
6 io_oeb[4] *137:22 0
7 io_oeb[4] *137:38 0.00145027
8 io_oeb[4] *138:6 0.000420799
9 *100:16 io_out[6] 0.00576212
10 *100:16 io_out[7] 0.000654762
11 *100:16 *101:14 0.00197263
12 *100:16 *101:74 0.00474263
13 *100:16 *102:38 0.00493015
14 *100:16 *138:6 0.0074986
15 *100:16 *139:6 0.00423457
16 *100:16 *141:46 0.000286672
17 *100:52 io_out[6] 0.00168243
18 *100:52 *101:88 0.00195635
19 *100:52 *138:6 0.000483937
20 *100:62 io_oeb[5] 0.00150286
21 *100:62 *137:22 0.00739756
22 *100:62 *138:6 1.47871e-05
23 *646:io_in[4] *100:16 0.000228481
24 *62:13 io_oeb[4] 0.00113508
25 *62:13 *100:62 0.000215494
26 *63:29 io_oeb[4] 0.000468748
27 *63:29 *100:62 7.59294e-05
28 *64:9 *100:16 0.00476686
29 *64:9 *100:52 0.00285874
30 *65:13 *100:16 0.000955504
31 *90:12 io_oeb[4] 0.000789523
32 *99:10 io_oeb[4] 4.65519e-05
33 *99:10 *100:52 0.00566557
34 *99:10 *100:62 0.0116019
35 *99:28 io_oeb[4] 0.00214279
*RES
1 *646:io_oeb[4] *100:16 49.7332 
2 *100:16 *100:52 45.7166 
3 *100:52 *100:62 47.2248 
4 *100:62 io_oeb[4] 49.8401 
*END

*D_NET *101 0.110091
*CONN
*P io_oeb[5] O
*I *646:io_oeb[5] O *D senseedge_top
*CAP
1 io_oeb[5] 0.000898966
2 *646:io_oeb[5] 0.00192826
3 *101:88 0.00618771
4 *101:74 0.0193787
5 *101:14 0.0220256
6 *101:8 0.00986386
7 *101:8 *102:26 0
8 *101:8 *103:40 0.00251384
9 *101:8 *141:38 0.00254174
10 *101:14 *102:26 0.0234658
11 *101:14 *103:56 0.00123569
12 *101:14 *141:46 0.00176495
13 *101:74 io_out[6] 0.00141034
14 *101:74 *102:26 0
15 *101:74 *102:36 0.000483165
16 *101:74 *138:6 0.000155846
17 *101:74 *139:6 0.000110007
18 *101:74 *140:22 0.001936
19 *101:88 *137:22 0.00012434
20 *646:io_in[5] *101:14 0.000165083
21 *62:13 io_oeb[5] 0.00134802
22 *64:9 *101:8 0.00046562
23 *64:9 *101:14 0.000204975
24 *64:9 *101:74 0.000456577
25 *65:13 *101:8 0.00101591
26 *99:10 io_oeb[5] 0.000160692
27 *99:10 *101:88 7.47582e-05
28 *100:16 *101:14 0.00197263
29 *100:16 *101:74 0.00474263
30 *100:52 *101:88 0.00195635
31 *100:62 io_oeb[5] 0.00150286
*RES
1 *646:io_oeb[5] *101:8 13.8816 
2 *101:8 *101:14 49.9673 
3 *101:14 *101:74 49.2864 
4 *101:74 *101:88 23.5097 
5 *101:88 io_oeb[5] 33.4166 
*END

*D_NET *102 0.132059
*CONN
*P io_oeb[6] O
*I *646:io_oeb[6] O *D senseedge_top
*CAP
1 io_oeb[6] 6.06217e-05
2 *646:io_oeb[6] 0.0105164
3 *102:38 0.0044794
4 *102:36 0.00491721
5 *102:26 0.00915731
6 *102:24 0.0191753
7 *102:24 *103:22 0.00262888
8 *102:24 *103:30 0.000367191
9 *102:24 *103:40 0.00252776
10 *102:24 *140:20 0.00188746
11 *102:24 *141:38 4.19152e-06
12 *102:26 *103:40 0.000863287
13 *102:26 *140:20 8.69906e-06
14 *102:26 *140:22 0.034015
15 *102:36 *140:22 0
16 *64:9 *102:36 0.000215614
17 *64:9 *102:38 0.011741
18 *65:13 *102:24 0.000614001
19 *100:16 *102:38 0.00493015
20 *101:8 *102:26 0
21 *101:14 *102:26 0.0234658
22 *101:74 *102:26 0
23 *101:74 *102:36 0.000483165
*RES
1 *646:io_oeb[6] *102:24 44.1371 
2 *102:24 *102:26 70.8917 
3 *102:26 *102:36 8.53237 
4 *102:36 *102:38 144.018 
5 *102:38 io_oeb[6] 3.5416 
*END

*D_NET *103 0.130164
*CONN
*P io_oeb[7] O
*I *646:io_oeb[7] O *D senseedge_top
*CAP
1 io_oeb[7] 0.000195121
2 *646:io_oeb[7] 0
3 *103:58 0.00514159
4 *103:56 0.00719255
5 *103:40 0.00651225
6 *103:30 0.00500921
7 *103:22 0.00530763
8 *103:8 0.0163906
9 *103:4 0.011826
10 *103:8 *141:12 0.011643
11 *103:22 *141:12 0.00275897
12 *103:22 *141:28 0.00847516
13 *103:30 *141:28 0.000913454
14 *103:40 *141:38 0.0101565
15 *103:56 *141:38 9.83979e-05
16 *103:56 *141:46 0.0030658
17 *103:58 *141:46 0.00328836
18 *646:io_in[6] *103:40 0.000228481
19 *646:io_in[7] *103:8 0.000228481
20 *64:9 *103:40 0.00485069
21 *64:9 *103:56 0.00263068
22 *65:13 *103:22 0.000858635
23 *65:13 *103:30 1.53887e-05
24 *65:13 *103:58 0.0132405
25 *101:8 *103:40 0.00251384
26 *101:14 *103:56 0.00123569
27 *102:24 *103:22 0.00262888
28 *102:24 *103:30 0.000367191
29 *102:24 *103:40 0.00252776
30 *102:26 *103:40 0.000863287
*RES
1 *646:io_oeb[7] *103:4 3.41 
2 *103:4 *103:8 47.6674 
3 *103:8 *103:22 32.4303 
4 *103:22 *103:30 27.6709 
5 *103:30 *103:40 33.6304 
6 *103:40 *103:56 46.832 
7 *103:56 *103:58 162.232 
8 *103:58 io_oeb[7] 4.0304 
*END

*D_NET *106 0.0202249
*CONN
*P io_out[0] O
*I *646:io_out[0] O *D senseedge_top
*CAP
1 io_out[0] 0.00579958
2 *646:io_out[0] 0.00579958
3 io_oeb[0] io_out[0] 0.00400217
4 *646:io_in[0] io_out[0] 0.00462362
*RES
1 *646:io_out[0] io_out[0] 32.8157 
*END

*D_NET *117 0.0384261
*CONN
*P io_out[1] O
*I *646:io_out[1] O *D senseedge_top
*CAP
1 io_out[1] 0.00100283
2 *646:io_out[1] 0.0112898
3 *117:28 0.0122926
4 io_oeb[0] io_out[1] 0.00106044
5 io_oeb[0] *117:28 0
6 io_oeb[1] *117:28 0.00877661
7 *52:13 *117:28 0.0040038
*RES
1 *646:io_out[1] *117:28 46.1111 
2 *117:28 io_out[1] 7.71677 
*END

*D_NET *128 0.066419
*CONN
*P io_out[2] O
*I *646:io_out[2] O *D senseedge_top
*CAP
1 io_out[2] 0.000198362
2 *646:io_out[2] 0
3 *128:6 0.00787365
4 *128:4 0.00767529
5 *128:6 *137:38 2.5072e-05
6 *128:6 *137:48 0.000147747
7 io_oeb[2] *128:6 0.00290804
8 *52:13 *128:6 0.0212122
9 *61:13 *128:6 0.0190007
10 *99:28 *128:6 0.00737794
*RES
1 *646:io_out[2] *128:4 3.41 
2 *128:4 *128:6 60.4514 
3 *128:6 io_out[2] 4.06643 
*END

*D_NET *129 0.0833501
*CONN
*P io_out[30] O
*I *646:io_out[8] O *D senseedge_top
*CAP
1 io_out[30] 0.0053696
2 *646:io_out[8] 0.0142267
3 *129:18 0.02727
4 *129:16 0.036127
5 io_out[30] *130:6 0.000110717
6 io_out[30] *131:6 0.000246133
7 *92:19 *129:18 0
*RES
1 *646:io_out[8] *129:16 36.3861 
2 *129:16 *129:18 69.8263 
3 *129:18 io_out[30] 7.05364 
*END

*D_NET *130 0.068746
*CONN
*P io_out[31] O
*I *646:io_out[9] O *D senseedge_top
*CAP
1 io_out[31] 0.000132725
2 *646:io_out[9] 0
3 *130:6 0.0231894
4 *130:4 0.0230567
5 *130:6 *131:6 0.021288
6 io_oeb[30] *130:6 0.000236455
7 io_out[30] *130:6 0.000110717
8 *646:io_in[10] *130:6 0.000138425
9 *646:io_in[11] *130:6 0.000181808
10 *54:21 *130:6 0.000154541
11 *92:17 *130:6 0.000115221
12 *93:17 *130:6 0.000142048
*RES
1 *646:io_out[9] *130:4 3.41 
2 *130:4 *130:6 75.4561 
3 *130:6 io_out[31] 3.73117 
*END

*D_NET *131 0.0728557
*CONN
*P io_out[32] O
*I *646:io_out[10] O *D senseedge_top
*CAP
1 io_out[32] 0.000141525
2 *646:io_out[10] 0
3 *131:6 0.0166335
4 *131:4 0.016492
5 io_out[32] *132:6 0.000204598
6 *131:6 *132:6 0.0172813
7 io_oeb[31] *131:6 0.000246133
8 io_out[30] *131:6 0.000246133
9 *55:21 *131:6 0.000322558
10 *130:6 *131:6 0.021288
*RES
1 *646:io_out[10] *131:4 3.41 
2 *131:4 *131:6 84.741 
3 *131:6 io_out[32] 3.85963 
*END

*D_NET *132 0.0662082
*CONN
*P io_out[33] O
*I *646:io_out[11] O *D senseedge_top
*CAP
1 io_out[33] 0.000236306
2 *646:io_out[11] 0
3 *132:6 0.017112
4 *132:4 0.0168757
5 io_out[33] *133:6 0.000322558
6 *132:6 *133:6 0.0136325
7 io_oeb[31] *132:6 0.000110717
8 io_oeb[32] *132:6 0.000138282
9 io_out[32] *132:6 0.000204598
10 *646:io_in[12] *132:6 0
11 *55:21 *132:6 4.1378e-05
12 *56:19 *132:6 0.000110717
13 *95:17 *132:6 0.000142048
14 *131:6 *132:6 0.0172813
*RES
1 *646:io_out[11] *132:4 3.41 
2 *132:4 *132:6 64.1567 
3 *132:6 io_out[33] 4.05077 
*END

*D_NET *133 0.0542928
*CONN
*P io_out[34] O
*I *646:io_out[12] O *D senseedge_top
*CAP
1 io_out[34] 0.00254029
2 *646:io_out[12] 0
3 *133:6 0.0158472
4 *133:4 0.0133069
5 io_out[34] *134:12 0.00113073
6 io_out[34] *134:14 0.00282069
7 *133:6 *134:12 0.00414579
8 io_out[33] *133:6 0.000322558
9 *646:io_in[13] *133:6 0.000267297
10 *56:19 *133:6 0.000246133
11 *57:15 io_out[34] 3.26217e-05
12 *132:6 *133:6 0.0136325
*RES
1 *646:io_out[12] *133:4 3.41 
2 *133:4 *133:6 58.9599 
3 *133:6 io_out[34] 14.9579 
*END

*D_NET *134 0.0464941
*CONN
*P io_out[35] O
*I *646:io_out[13] O *D senseedge_top
*CAP
1 io_out[35] 0.000167252
2 *646:io_out[13] 0.00369621
3 *134:14 0.0120135
4 *134:12 0.0155425
5 *134:14 *135:6 0.00644034
6 io_oeb[34] *134:14 0.000251207
7 io_out[34] *134:12 0.00113073
8 io_out[34] *134:14 0.00282069
9 *58:19 *134:14 0.000285914
10 *96:12 *134:12 0
11 *133:6 *134:12 0.00414579
*RES
1 *646:io_out[13] *134:12 19.3806 
2 *134:12 *134:14 17.4458 
3 *134:14 io_out[35] 3.8377 
*END

*D_NET *135 0.0379031
*CONN
*P io_out[36] O
*I *646:io_out[14] O *D senseedge_top
*CAP
1 io_out[36] 0.000133909
2 *646:io_out[14] 0.00855519
3 *135:6 0.0086891
4 io_oeb[35] *135:6 0.000398983
5 io_oeb[36] io_out[36] 0.000204598
6 io_oeb[36] *135:6 0.0131584
7 *58:19 *135:6 0.000322558
8 *134:14 *135:6 0.00644034
*RES
1 *646:io_out[14] *135:6 47.0291 
2 *135:6 io_out[36] 3.85963 
*END

*D_NET *136 0.0201823
*CONN
*P io_out[37] O
*I *646:io_out[15] O *D senseedge_top
*CAP
1 io_out[37] 0.00626505
2 *646:io_out[15] 0.00626505
3 io_oeb[36] io_out[37] 0.00275433
4 io_oeb[37] io_out[37] 0.00457528
5 *646:io_in[15] io_out[37] 0.000322558
*RES
1 *646:io_out[15] io_out[37] 32.9912 
*END

*D_NET *137 0.0644239
*CONN
*P io_out[3] O
*I *646:io_out[3] O *D senseedge_top
*CAP
1 io_out[3] 7.94448e-05
2 *646:io_out[3] 0.00861154
3 *137:48 0.00245148
4 *137:38 0.0108572
5 *137:22 0.0170967
6 io_oeb[2] *137:48 0.000446561
7 io_oeb[3] *137:48 0.000112823
8 io_oeb[4] *137:22 0
9 io_oeb[4] *137:38 0.00145027
10 *52:13 *137:48 0.0044965
11 *63:29 *137:22 3.41111e-05
12 *90:12 *137:38 0.00757481
13 *90:36 *137:38 0.000268938
14 *90:36 *137:48 0.00226778
15 *99:10 *137:22 0.000224446
16 *99:28 *137:38 0.000756477
17 *100:62 *137:22 0.00739756
18 *101:88 *137:22 0.00012434
19 *128:6 *137:38 2.5072e-05
20 *128:6 *137:48 0.000147747
*RES
1 *646:io_out[3] *137:22 33.6749 
2 *137:22 *137:38 43.7354 
3 *137:38 *137:48 46.8495 
4 *137:48 io_out[3] 3.57763 
*END

*D_NET *138 0.106256
*CONN
*P io_out[4] O
*I *646:io_out[4] O *D senseedge_top
*CAP
1 io_out[4] 0.000242854
2 *646:io_out[4] 0
3 *138:6 0.0105844
4 *138:4 0.0103415
5 *138:6 io_out[6] 6.7962e-06
6 *138:6 *139:6 0.0306239
7 io_oeb[4] *138:6 0.000420799
8 *61:13 *138:6 0.0145959
9 *62:13 *138:6 0.0018207
10 *99:10 *138:6 0.0198427
11 *99:28 *138:6 0.00962281
12 *100:16 *138:6 0.0074986
13 *100:52 *138:6 0.000483937
14 *100:62 *138:6 1.47871e-05
15 *101:74 *138:6 0.000155846
*RES
1 *646:io_out[4] *138:4 3.41 
2 *138:4 *138:6 95.1813 
3 *138:6 io_out[4] 4.06643 
*END

*D_NET *139 0.0921353
*CONN
*P io_out[5] O
*I *646:io_out[5] O *D senseedge_top
*CAP
1 io_out[5] 0.000315197
2 *646:io_out[5] 0
3 *139:6 0.0242886
4 *139:4 0.0239734
5 *139:6 *141:46 0.0085896
6 *100:16 *139:6 0.00423457
7 *101:74 *139:6 0.000110007
8 *138:6 *139:6 0.0306239
*RES
1 *646:io_out[5] *139:4 3.41 
2 *139:4 *139:6 112.546 
3 *139:6 io_out[5] 4.21057 
*END

*D_NET *140 0.121415
*CONN
*P io_out[6] O
*I *646:io_out[6] O *D senseedge_top
*CAP
1 io_out[6] 0.00722718
2 *646:io_out[6] 0.00768979
3 *140:22 0.0275986
4 *140:20 0.0280612
5 *140:20 *141:28 0.00382344
6 *65:13 *140:20 0.000305586
7 *100:16 io_out[6] 0.00576212
8 *100:52 io_out[6] 0.00168243
9 *101:74 io_out[6] 0.00141034
10 *101:74 *140:22 0.001936
11 *102:24 *140:20 0.00188746
12 *102:26 *140:20 8.69906e-06
13 *102:26 *140:22 0.034015
14 *102:36 *140:22 0
15 *138:6 io_out[6] 6.7962e-06
*RES
1 *646:io_out[6] *140:20 27.3463 
2 *140:20 *140:22 80.4483 
3 *140:22 io_out[6] 43.8329 
*END

*D_NET *141 0.136016
*CONN
*P io_out[7] O
*I *646:io_out[7] O *D senseedge_top
*CAP
1 io_out[7] 0.00136808
2 *646:io_out[7] 0.00876036
3 *141:46 0.00882909
4 *141:38 0.0144971
5 *141:28 0.0101564
6 *141:12 0.0118806
7 *646:io_in[5] *141:46 0.000275618
8 *64:9 *141:46 0.00640616
9 *65:13 io_out[7] 0.00313098
10 *65:13 *141:12 0.00073911
11 *65:13 *141:28 0.00522089
12 *65:13 *141:38 0.00273047
13 *65:13 *141:46 0.00395602
14 *100:16 io_out[7] 0.000654762
15 *100:16 *141:46 0.000286672
16 *101:8 *141:38 0.00254174
17 *101:14 *141:46 0.00176495
18 *102:24 *141:38 4.19152e-06
19 *103:8 *141:12 0.011643
20 *103:22 *141:12 0.00275897
21 *103:22 *141:28 0.00847516
22 *103:30 *141:28 0.000913454
23 *103:40 *141:38 0.0101565
24 *103:56 *141:38 9.83979e-05
25 *103:56 *141:46 0.0030658
26 *103:58 *141:46 0.00328836
27 *139:6 *141:46 0.0085896
28 *140:20 *141:28 0.00382344
*RES
1 *646:io_out[7] *141:12 42.8336 
2 *141:12 *141:28 48.1348 
3 *141:28 *141:38 36.1439 
4 *141:38 *141:46 45.4712 
5 *141:46 io_out[7] 42.4054 
*END

*D_NET *144 0.0148083
*CONN
*P la_data_in[0] I
*I *646:la_data_in[0] I *D senseedge_top
*CAP
1 la_data_in[0] 0.00323085
2 *646:la_data_in[0] 0.00397533
3 *144:13 0.00720618
4 *646:la_data_in[0] *205:13 0
5 *144:13 wbs_dat_o[31] 0.000395982
6 *144:13 *183:13 0
7 *144:13 *631:13 0
*RES
1 la_data_in[0] *144:13 24.3645 
2 *144:13 *646:la_data_in[0] 80.8125 
*END

*D_NET *145 0.0177458
*CONN
*P la_data_in[100] I
*I *646:la_data_in[100] I *D senseedge_top
*CAP
1 la_data_in[100] 0.00224988
2 *646:la_data_in[100] 0.000832523
3 *145:15 0.00418699
4 *145:13 0.00560434
5 *145:13 *147:13 0.00145013
6 *145:13 *276:5 0
7 *145:13 *398:26 0.000566565
8 *145:13 *525:21 0.00160035
9 *145:13 *526:21 0.00125506
*RES
1 la_data_in[100] *145:13 20.8658 
2 *145:13 *145:15 68.8929 
3 *145:15 *646:la_data_in[100] 17.0446 
*END

*D_NET *146 0.0187068
*CONN
*P la_data_in[101] I
*I *646:la_data_in[101] I *D senseedge_top
*CAP
1 la_data_in[101] 0.00235858
2 *646:la_data_in[101] 0.00330654
3 *146:11 0.00566511
4 *646:la_data_in[101] *396:13 0
5 *646:la_data_in[101] *524:7 0.00312937
6 *646:la_data_in[101] *526:15 0
7 *146:11 la_data_out[103] 5.91641e-05
8 *146:11 la_data_out[104] 0.000174849
9 *146:11 *270:11 0.00238749
10 *146:11 *401:13 0.00162566
*RES
1 la_data_in[101] *146:11 17.4582 
2 *146:11 *646:la_data_in[101] 88.7054 
*END

*D_NET *147 0.0187012
*CONN
*P la_data_in[102] I
*I *646:la_data_in[102] I *D senseedge_top
*CAP
1 la_data_in[102] 0.0020751
2 *646:la_data_in[102] 0.00417788
3 *147:13 0.00625298
4 *147:13 la_data_out[103] 0.00383449
5 *147:13 *149:13 0
6 *147:13 *401:13 0.000742235
7 *147:13 *525:21 0.000168408
8 *145:13 *147:13 0.00145013
*RES
1 la_data_in[102] *147:13 20.5667 
2 *147:13 *646:la_data_in[102] 85.6696 
*END

*D_NET *148 0.0161846
*CONN
*P la_data_in[103] I
*I *646:la_data_in[103] I *D senseedge_top
*CAP
1 la_data_in[103] 0.00123802
2 *646:la_data_in[103] 0.00388177
3 *148:11 0.00643726
4 *148:9 0.00379351
5 *646:la_data_in[103] *646:la_data_in[105] 0
6 *646:la_data_in[103] *273:11 0
7 *148:9 *646:la_data_in[107] 0
8 *148:9 *646:la_oenb[106] 0.000834025
9 *148:9 *403:7 0
10 *148:11 *646:la_data_in[107] 0
11 *148:11 *646:la_oenb[106] 0
*RES
1 la_data_in[103] *148:9 31.8482 
2 *148:9 *148:11 52.1964 
3 *148:11 *646:la_data_in[103] 23.4812 
*END

*D_NET *149 0.0173773
*CONN
*P la_data_in[104] I
*I *646:la_data_in[104] I *D senseedge_top
*CAP
1 la_data_in[104] 0.00378741
2 *646:la_data_in[104] 0.00297067
3 *149:13 0.00675809
4 *646:la_data_in[104] la_data_out[100] 0.000950468
5 *646:la_data_in[104] *273:15 0.00274743
6 *149:13 la_data_out[102] 0
7 *149:13 la_data_out[103] 0
8 *149:13 la_data_out[107] 0.000163201
9 *149:13 *152:13 0
10 *149:13 *406:13 0
11 *147:13 *149:13 0
*RES
1 la_data_in[104] *149:13 25.4455 
2 *149:13 *646:la_data_in[104] 80.8125 
*END

*D_NET *150 0.0158908
*CONN
*P la_data_in[105] I
*I *646:la_data_in[105] I *D senseedge_top
*CAP
1 la_data_in[105] 4.32496e-05
2 *646:la_data_in[105] 0.00427878
3 *150:7 0.00789986
4 *150:5 0.00366432
5 *646:la_data_in[105] *646:la_data_in[106] 0
6 *646:la_data_in[105] *646:la_data_in[109] 4.6025e-06
7 *646:la_data_in[105] *646:la_oenb[101] 0
8 *646:la_data_in[105] *646:la_oenb[107] 0
9 *646:la_data_in[105] *646:la_oenb[108] 0
10 *646:la_data_in[103] *646:la_data_in[105] 0
*RES
1 la_data_in[105] *150:5 0.883929 
2 *150:5 *150:7 73.1429 
3 *150:7 *646:la_data_in[105] 33.8594 
*END

*D_NET *151 0.0163689
*CONN
*P la_data_in[106] I
*I *646:la_data_in[106] I *D senseedge_top
*CAP
1 la_data_in[106] 4.32496e-05
2 *646:la_data_in[106] 0.00458326
3 *151:7 0.0075102
4 *151:5 0.00297019
5 *646:la_data_in[106] *646:la_data_in[109] 0
6 *646:la_data_in[106] *279:11 0
7 *151:7 *646:la_data_in[110] 0.00126202
8 *151:7 *156:17 0
9 *151:7 *284:9 0
10 *646:la_data_in[105] *646:la_data_in[106] 0
*RES
1 la_data_in[106] *151:5 0.883929 
2 *151:5 *151:7 69.9464 
3 *151:7 *646:la_data_in[106] 36.3447 
*END

*D_NET *152 0.0158674
*CONN
*P la_data_in[107] I
*I *646:la_data_in[107] I *D senseedge_top
*CAP
1 la_data_in[107] 0.00427724
2 *646:la_data_in[107] 0.00365647
3 *152:13 0.00793371
4 *152:13 *153:13 0
5 *148:9 *646:la_data_in[107] 0
6 *148:11 *646:la_data_in[107] 0
7 *149:13 *152:13 0
*RES
1 la_data_in[107] *152:13 32.0935 
2 *152:13 *646:la_data_in[107] 74.7411 
*END

*D_NET *153 0.0158755
*CONN
*P la_data_in[108] I
*I *646:la_data_in[108] I *D senseedge_top
*CAP
1 la_data_in[108] 0.00391733
2 *646:la_data_in[108] 0.00392937
3 *153:13 0.0078467
4 *153:13 la_data_out[107] 0
5 *153:13 la_data_out[108] 0
6 *153:13 *646:la_data_in[112] 1.65923e-05
7 *153:13 *158:13 0.000165535
8 *153:13 *413:13 0
9 *152:13 *153:13 0
*RES
1 la_data_in[108] *153:13 26.7733 
2 *153:13 *646:la_data_in[108] 80.2054 
*END

*D_NET *154 0.0165305
*CONN
*P la_data_in[109] I
*I *646:la_data_in[109] I *D senseedge_top
*CAP
1 la_data_in[109] 0.00160445
2 *646:la_data_in[109] 0.00430959
3 *154:13 0.00593027
4 *154:9 0.00322513
5 *646:la_data_in[109] *646:la_oenb[107] 0
6 *154:9 *646:la_data_in[113] 0
7 *154:9 *287:5 0
8 *154:13 *646:la_data_in[113] 0
9 *154:13 *287:5 0.00145646
10 *646:la_data_in[105] *646:la_data_in[109] 4.6025e-06
11 *646:la_data_in[106] *646:la_data_in[109] 0
*RES
1 la_data_in[109] *154:9 31.8482 
2 *154:9 *154:13 49.535 
3 *154:13 *646:la_data_in[109] 27.2957 
*END

*D_NET *155 0.015837
*CONN
*P la_data_in[10] I
*I *646:la_data_in[10] I *D senseedge_top
*CAP
1 la_data_in[10] 0.00070812
2 *646:la_data_in[10] 0.00233005
3 *155:15 0.00486893
4 *155:13 0.003247
5 *646:la_data_in[10] *646:la_oenb[9] 0
6 *646:la_data_in[10] *294:15 0
7 *646:la_data_in[10] *431:11 0.000223753
8 *155:13 *527:13 0
9 *155:15 la_data_out[10] 0
10 *155:15 *411:13 0.0021517
11 *155:15 *411:15 0.00230744
*RES
1 la_data_in[10] *155:13 22.0536 
2 *155:13 *155:15 77.3839 
3 *155:15 *646:la_data_in[10] 20.2994 
*END

*D_NET *156 0.016846
*CONN
*P la_data_in[110] I
*I *646:la_data_in[110] I *D senseedge_top
*CAP
1 la_data_in[110] 0.00528466
2 *646:la_data_in[110] 0.00233076
3 *156:17 0.00761541
4 *646:la_data_in[110] *410:17 0
5 *156:17 la_data_out[111] 0
6 *156:17 *160:13 0.000353137
7 *156:17 *288:5 0
8 *156:17 *410:17 0
9 *151:7 *646:la_data_in[110] 0.00126202
10 *151:7 *156:17 0
*RES
1 la_data_in[110] *156:17 49.5979 
2 *156:17 *646:la_data_in[110] 58.8125 
*END

*D_NET *157 0.0176312
*CONN
*P la_data_in[111] I
*I *646:la_data_in[111] I *D senseedge_top
*CAP
1 la_data_in[111] 0.00529228
2 *646:la_data_in[111] 0.00273223
3 *157:17 0.00273223
4 *157:15 0.00529228
5 *157:15 la_data_out[111] 0
6 *157:15 *161:13 0
7 *157:15 *289:5 0.000241988
8 *157:15 *289:15 0.00134022
*RES
1 la_data_in[111] *157:15 49.2268 
2 *157:15 *157:17 3.41 
3 *157:17 *646:la_data_in[111] 55.9196 
*END

*D_NET *158 0.0171059
*CONN
*P la_data_in[112] I
*I *646:la_data_in[112] I *D senseedge_top
*CAP
1 la_data_in[112] 0.00451182
2 *646:la_data_in[112] 0.00395008
3 *158:13 0.0084619
4 *646:la_data_in[112] *408:9 0
5 *646:la_data_in[112] *408:11 0
6 *158:13 la_data_out[112] 0
7 *158:13 la_data_out[113] 0
8 *158:13 *159:13 0
9 *158:13 *290:5 0
10 *158:13 *413:13 0
11 *158:13 *416:13 0
12 *153:13 *646:la_data_in[112] 1.65923e-05
13 *153:13 *158:13 0.000165535
*RES
1 la_data_in[112] *158:13 27.4436 
2 *158:13 *646:la_data_in[112] 80.8125 
*END

*D_NET *159 0.0173093
*CONN
*P la_data_in[113] I
*I *646:la_data_in[113] I *D senseedge_top
*CAP
1 la_data_in[113] 0.00477819
2 *646:la_data_in[113] 0.00367445
3 *159:13 0.00845263
4 *159:13 *291:5 0.000403985
5 *154:9 *646:la_data_in[113] 0
6 *154:13 *646:la_data_in[113] 0
7 *158:13 *159:13 0
*RES
1 la_data_in[113] *159:13 33.5131 
2 *159:13 *646:la_data_in[113] 74.7411 
*END

*D_NET *160 0.0172822
*CONN
*P la_data_in[114] I
*I *646:la_data_in[114] I *D senseedge_top
*CAP
1 la_data_in[114] 0.00512066
2 *646:la_data_in[114] 0.00334387
3 *160:13 0.00846452
4 *160:13 la_data_out[111] 0
5 *160:13 *646:la_oenb[118] 0
6 *160:13 *292:5 0
7 *160:13 *418:13 0
8 *156:17 *160:13 0.000353137
*RES
1 la_data_in[114] *160:13 39.6585 
2 *160:13 *646:la_data_in[114] 68.0625 
*END

*D_NET *161 0.0171654
*CONN
*P la_data_in[115] I
*I *646:la_data_in[115] I *D senseedge_top
*CAP
1 la_data_in[115] 0.00196694
2 *646:la_data_in[115] 0.00246262
3 *161:13 0.00661574
4 *161:9 0.00612006
5 *646:la_data_in[115] *416:15 0
6 *161:9 *293:5 0
7 *161:9 *421:15 0
8 *161:13 *414:13 0
9 *157:15 *161:13 0
*RES
1 la_data_in[115] *161:9 43.0796 
2 *161:9 *161:13 15.348 
3 *161:13 *646:la_data_in[115] 49.8482 
*END

*D_NET *162 0.0189209
*CONN
*P la_data_in[116] I
*I *646:la_data_in[116] I *D senseedge_top
*CAP
1 la_data_in[116] 0.000683072
2 *646:la_data_in[116] 0.00476096
3 *162:11 0.00693741
4 *162:9 0.00285952
5 *646:la_data_in[116] *646:la_data_in[117] 0
6 *646:la_data_in[116] *646:la_oenb[120] 0.000404514
7 *646:la_data_in[116] *286:11 0.00134587
8 *162:9 *646:la_oenb[120] 0
9 *162:11 *646:la_oenb[120] 0.00192953
*RES
1 la_data_in[116] *162:9 12.9554 
2 *162:9 *162:11 61.7321 
3 *162:11 *646:la_data_in[116] 35.4665 
*END

*D_NET *163 0.0173811
*CONN
*P la_data_in[117] I
*I *646:la_data_in[117] I *D senseedge_top
*CAP
1 la_data_in[117] 0.00118794
2 *646:la_data_in[117] 0.00480024
3 *163:13 0.00705571
4 *163:9 0.00344341
5 *646:la_data_in[117] *646:la_data_in[118] 0
6 *646:la_data_in[117] *286:13 0
7 *163:9 *646:la_oenb[121] 0.000893774
8 *163:13 *646:la_oenb[121] 0
9 *646:la_data_in[116] *646:la_data_in[117] 0
*RES
1 la_data_in[117] *163:9 31.2411 
2 *163:9 *163:13 49.535 
3 *163:13 *646:la_data_in[117] 28.737 
*END

*D_NET *164 0.0188742
*CONN
*P la_data_in[118] I
*I *646:la_data_in[118] I *D senseedge_top
*CAP
1 la_data_in[118] 5.82584e-05
2 *646:la_data_in[118] 0.00529406
3 *164:7 0.00876376
4 *164:5 0.00352796
5 *646:la_data_in[118] *646:la_data_in[119] 0
6 *164:7 *646:la_oenb[122] 0.0012302
7 *646:la_data_in[117] *646:la_data_in[118] 0
*RES
1 la_data_in[118] *164:5 0.883929 
2 *164:5 *164:7 69.9464 
3 *164:7 *646:la_data_in[118] 38.2905 
*END

*D_NET *165 0.0183436
*CONN
*P la_data_in[119] I
*I *646:la_data_in[119] I *D senseedge_top
*CAP
1 la_data_in[119] 8.09444e-05
2 *646:la_data_in[119] 0.00591099
3 *165:7 0.0090769
4 *165:5 0.00324686
5 *646:la_data_in[119] *646:la_data_in[124] 2.7883e-05
6 *165:7 la_data_out[119] 0
7 *646:la_data_in[118] *646:la_data_in[119] 0
*RES
1 la_data_in[119] *165:5 0.883929 
2 *165:5 *165:7 63.875 
3 *165:7 *646:la_data_in[119] 44.7944 
*END

*D_NET *166 0.013383
*CONN
*P la_data_in[11] I
*I *646:la_data_in[11] I *D senseedge_top
*CAP
1 la_data_in[11] 0.00250484
2 *646:la_data_in[11] 0.00375396
3 *166:17 0.00625881
4 *646:la_data_in[11] *304:13 0
5 *646:la_data_in[11] *432:9 0.000764515
6 *646:la_data_in[11] *432:11 0
7 *166:17 *422:11 0
8 *166:17 *516:13 0.0001009
*RES
1 la_data_in[11] *166:17 19.5114 
2 *166:17 *646:la_data_in[11] 83.2411 
*END

*D_NET *167 0.0177091
*CONN
*P la_data_in[120] I
*I *646:la_data_in[120] I *D senseedge_top
*CAP
1 la_data_in[120] 0.0049003
2 *646:la_data_in[120] 0.00394404
3 *167:13 0.00884434
4 *646:la_data_in[120] *421:15 0
5 *167:13 la_data_out[119] 0
6 *167:13 la_data_out[120] 0
7 *167:13 la_data_out[122] 0
8 *167:13 *646:la_data_in[125] 2.04003e-05
9 *167:13 *421:13 0
10 *167:13 *427:13 0
*RES
1 la_data_in[120] *167:13 29.346 
2 *167:13 *646:la_data_in[120] 80.2054 
*END

*D_NET *168 0.018596
*CONN
*P la_data_in[121] I
*I *646:la_data_in[121] I *D senseedge_top
*CAP
1 la_data_in[121] 0.00158303
2 *646:la_data_in[121] 0.00502236
3 *168:11 0.00762442
4 *168:9 0.0041851
5 *646:la_data_in[121] *646:la_data_in[122] 0
6 *646:la_data_in[121] *646:la_data_in[126] 0.000164521
7 *168:11 *646:la_data_in[126] 1.65923e-05
8 *168:11 *301:5 0
*RES
1 la_data_in[121] *168:9 31.2411 
2 *168:9 *168:11 52.8036 
3 *168:11 *646:la_data_in[121] 26.1891 
*END

*D_NET *169 0.0186731
*CONN
*P la_data_in[122] I
*I *646:la_data_in[122] I *D senseedge_top
*CAP
1 la_data_in[122] 0.00156847
2 *646:la_data_in[122] 0.00529642
3 *169:11 0.00761498
4 *169:9 0.00388703
5 *646:la_data_in[122] *646:la_data_in[123] 0
6 *646:la_data_in[122] *646:la_data_in[126] 0
7 *646:la_data_in[122] *646:la_data_in[127] 0.000306237
8 *169:9 *302:5 0
9 *169:11 *302:5 0
10 *646:la_data_in[121] *646:la_data_in[122] 0
*RES
1 la_data_in[122] *169:9 31.2411 
2 *169:9 *169:11 46.7321 
3 *169:11 *646:la_data_in[122] 32.4768 
*END

*D_NET *170 0.0186794
*CONN
*P la_data_in[123] I
*I *646:la_data_in[123] I *D senseedge_top
*CAP
1 la_data_in[123] 4.32496e-05
2 *646:la_data_in[123] 0.00565214
3 *170:7 0.00914191
4 *170:5 0.00353301
5 *646:la_data_in[123] *646:la_data_in[124] 0
6 *646:la_data_in[123] *646:la_data_in[127] 0
7 *646:la_data_in[123] *529:11 0.00030911
8 *170:7 *530:5 0
9 *646:la_data_in[122] *646:la_data_in[123] 0
*RES
1 la_data_in[123] *170:5 0.883929 
2 *170:5 *170:7 69.9464 
3 *170:7 *646:la_data_in[123] 38.5482 
*END

*D_NET *171 0.0191295
*CONN
*P la_data_in[124] I
*I *646:la_data_in[124] I *D senseedge_top
*CAP
1 la_data_in[124] 4.32496e-05
2 *646:la_data_in[124] 0.00632609
3 *171:7 0.00950755
4 *171:5 0.00322471
5 *646:la_data_in[124] *529:11 0
6 *646:la_data_in[119] *646:la_data_in[124] 2.7883e-05
7 *646:la_data_in[123] *646:la_data_in[124] 0
*RES
1 la_data_in[124] *171:5 0.883929 
2 *171:5 *171:7 63.875 
3 *171:7 *646:la_data_in[124] 45.0363 
*END

*D_NET *172 0.0184047
*CONN
*P la_data_in[125] I
*I *646:la_data_in[125] I *D senseedge_top
*CAP
1 la_data_in[125] 0.0052259
2 *646:la_data_in[125] 0.00396624
3 *172:13 0.00919214
4 *172:13 la_data_out[122] 0
5 *172:13 la_data_out[125] 0
6 *172:13 *427:13 0
7 *167:13 *646:la_data_in[125] 2.04003e-05
*RES
1 la_data_in[125] *172:13 29.6037 
2 *172:13 *646:la_data_in[125] 80.8125 
*END

*D_NET *173 0.0188723
*CONN
*P la_data_in[126] I
*I *646:la_data_in[126] I *D senseedge_top
*CAP
1 la_data_in[126] 4.32496e-05
2 *646:la_data_in[126] 0.00571467
3 *173:7 0.00930234
4 *173:5 0.00363092
5 *646:la_data_in[126] *646:la_data_in[127] 0
6 *646:la_data_in[121] *646:la_data_in[126] 0.000164521
7 *646:la_data_in[122] *646:la_data_in[126] 0
8 *168:11 *646:la_data_in[126] 1.65923e-05
*RES
1 la_data_in[126] *173:5 0.883929 
2 *173:5 *173:7 73.1429 
3 *173:7 *646:la_data_in[126] 37.751 
*END

*D_NET *174 0.0185106
*CONN
*P la_data_in[127] I
*I *646:la_data_in[127] I *D senseedge_top
*CAP
1 la_data_in[127] 0.00156207
2 *646:la_data_in[127] 0.00529361
3 *174:13 0.00754009
4 *174:9 0.00380854
5 *646:la_data_in[127] *529:11 0
6 *646:la_data_in[122] *646:la_data_in[127] 0.000306237
7 *646:la_data_in[123] *646:la_data_in[127] 0
8 *646:la_data_in[126] *646:la_data_in[127] 0
*RES
1 la_data_in[127] *174:9 31.8482 
2 *174:9 *174:13 49.535 
3 *174:13 *646:la_data_in[127] 30.6108 
*END

*D_NET *175 0.0137124
*CONN
*P la_data_in[12] I
*I *646:la_data_in[12] I *D senseedge_top
*CAP
1 la_data_in[12] 0.00305188
2 *646:la_data_in[12] 0.00287104
3 *175:13 0.00592292
4 *646:la_data_in[12] *305:15 0
5 *646:la_data_in[12] *305:17 0.00186655
6 *646:la_data_in[12] *433:9 0
7 *646:la_data_in[12] *433:11 0
*RES
1 la_data_in[12] *175:13 28.2739 
2 *175:13 *646:la_data_in[12] 74.7411 
*END

*D_NET *176 0.013744
*CONN
*P la_data_in[13] I
*I *646:la_data_in[13] I *D senseedge_top
*CAP
1 la_data_in[13] 0.00142996
2 *646:la_data_in[13] 0.00228769
3 *176:11 0.00476566
4 *176:9 0.00390793
5 *646:la_data_in[13] *646:la_data_in[14] 0
6 *646:la_data_in[13] *294:15 0
7 *646:la_data_in[13] *305:15 0.000617988
8 *646:la_data_in[13] *306:13 0.000314659
9 *176:9 *283:5 0.000420085
10 *176:11 *283:5 0
*RES
1 la_data_in[13] *176:9 31.8482 
2 *176:9 *176:11 50.9821 
3 *176:11 *646:la_data_in[13] 21.4525 
*END

*D_NET *177 0.0133857
*CONN
*P la_data_in[14] I
*I *646:la_data_in[14] I *D senseedge_top
*CAP
1 la_data_in[14] 0.00156133
2 *646:la_data_in[14] 0.00273172
3 *177:13 0.00497906
4 *177:9 0.00380867
5 *646:la_data_in[14] *646:la_data_in[15] 0
6 *646:la_data_in[14] *646:la_data_in[16] 0
7 *646:la_data_in[14] *307:15 0.00030488
8 *177:9 *422:13 0
9 *177:13 *422:13 0
10 *646:la_data_in[13] *646:la_data_in[14] 0
*RES
1 la_data_in[14] *177:9 31.8482 
2 *177:9 *177:13 49.535 
3 *177:13 *646:la_data_in[14] 22.7555 
*END

*D_NET *178 0.0136191
*CONN
*P la_data_in[15] I
*I *646:la_data_in[15] I *D senseedge_top
*CAP
1 la_data_in[15] 4.32496e-05
2 *646:la_data_in[15] 0.00284141
3 *178:7 0.00624347
4 *178:5 0.00344531
5 *646:la_data_in[15] *646:la_data_in[17] 0
6 *646:la_data_in[15] *180:13 0.000504017
7 *646:la_data_in[15] *308:13 0.000541624
8 *178:7 *303:5 0
9 *646:la_data_in[14] *646:la_data_in[15] 0
*RES
1 la_data_in[15] *178:5 0.883929 
2 *178:5 *178:7 69.9464 
3 *178:7 *646:la_data_in[15] 32.1649 
*END

*D_NET *179 0.0154314
*CONN
*P la_data_in[16] I
*I *646:la_data_in[16] I *D senseedge_top
*CAP
1 la_data_in[16] 0.00160032
2 *646:la_data_in[16] 0.00180929
3 *179:11 0.0042982
4 *179:9 0.00408923
5 *646:la_data_in[16] *646:la_oenb[14] 0
6 *646:la_data_in[16] *646:la_oenb[16] 0.00267101
7 *646:la_data_in[16] *646:la_oenb[17] 0.000287218
8 *646:la_data_in[16] *181:11 0
9 *646:la_data_in[16] *305:15 0.000386695
10 *646:la_data_in[16] *307:15 0.000289486
11 *646:la_data_in[16] *309:13 0
12 *179:9 *434:13 0
13 *646:la_data_in[14] *646:la_data_in[16] 0
*RES
1 la_data_in[16] *179:9 31.8482 
2 *179:9 *179:11 50.9821 
3 *179:11 *646:la_data_in[16] 20.948 
*END

*D_NET *180 0.0132046
*CONN
*P la_data_in[17] I
*I *646:la_data_in[17] I *D senseedge_top
*CAP
1 la_data_in[17] 0.0016198
2 *646:la_data_in[17] 0.00259661
3 *180:13 0.00472772
4 *180:9 0.0037509
5 *646:la_data_in[17] *646:la_data_in[19] 0
6 *646:la_data_in[17] *646:la_oenb[16] 0
7 *646:la_data_in[17] *646:la_oenb[18] 0
8 *646:la_data_in[17] *307:15 0
9 *646:la_data_in[17] *310:13 0
10 *180:9 la_data_out[17] 0
11 *180:13 la_data_out[17] 5.54817e-06
12 *180:13 *308:13 0
13 *646:la_data_in[15] *646:la_data_in[17] 0
14 *646:la_data_in[15] *180:13 0.000504017
*RES
1 la_data_in[17] *180:9 33.2946 
2 *180:9 *180:13 49.535 
3 *180:13 *646:la_data_in[17] 21.5304 
*END

*D_NET *181 0.0136247
*CONN
*P la_data_in[18] I
*I *646:la_data_in[18] I *D senseedge_top
*CAP
1 la_data_in[18] 0.00159526
2 *646:la_data_in[18] 0.00164044
3 *181:11 0.0044197
4 *181:9 0.00437453
5 *646:la_data_in[18] *646:la_data_in[20] 3.12518e-05
6 *646:la_data_in[18] *646:la_oenb[17] 0.000990668
7 *646:la_data_in[18] *308:11 0.000480865
8 *646:la_data_in[18] *309:11 9.20325e-05
9 *646:la_data_in[18] *312:13 0
10 *646:la_data_in[16] *181:11 0
*RES
1 la_data_in[18] *181:9 31.8482 
2 *181:9 *181:11 54.625 
3 *181:11 *646:la_data_in[18] 16.8728 
*END

*D_NET *182 0.0153966
*CONN
*P la_data_in[19] I
*I *646:la_data_in[19] I *D senseedge_top
*CAP
1 la_data_in[19] 4.43439e-05
2 *646:la_data_in[19] 0.00219406
3 *182:7 0.00586095
4 *182:5 0.00371123
5 *646:la_data_in[19] *646:la_data_in[21] 0.000490079
6 *646:la_data_in[19] *646:la_oenb[18] 0.000177984
7 *646:la_data_in[19] *310:11 0.00291792
8 *646:la_data_in[17] *646:la_data_in[19] 0
*RES
1 la_data_in[19] *182:5 0.883929 
2 *182:5 *182:7 73.1429 
3 *182:7 *646:la_data_in[19] 29.1751 
*END

*D_NET *183 0.0146718
*CONN
*P la_data_in[1] I
*I *646:la_data_in[1] I *D senseedge_top
*CAP
1 la_data_in[1] 0.0036542
2 *646:la_data_in[1] 0.00368172
3 *183:13 0.00733591
4 *646:la_data_in[1] la_data_out[4] 0
5 *646:la_data_in[1] *216:7 0
6 *183:13 la_data_out[3] 0
7 *183:13 *632:13 0
8 *144:13 *183:13 0
*RES
1 la_data_in[1] *183:13 30.2918 
2 *183:13 *646:la_data_in[1] 74.7411 
*END

*D_NET *184 0.0151183
*CONN
*P la_data_in[20] I
*I *646:la_data_in[20] I *D senseedge_top
*CAP
1 la_data_in[20] 0.00159526
2 *646:la_data_in[20] 0.00158335
3 *184:11 0.00427127
4 *184:9 0.00428319
5 *646:la_data_in[20] *646:la_data_in[21] 0.00022615
6 *646:la_data_in[20] *646:la_oenb[18] 0.000252474
7 *646:la_data_in[20] *646:la_oenb[20] 0.00222762
8 *646:la_data_in[20] *309:11 0.000647728
9 *646:la_data_in[20] *312:11 0
10 *646:la_data_in[20] *441:11 0
11 *646:la_data_in[18] *646:la_data_in[20] 3.12518e-05
*RES
1 la_data_in[20] *184:9 31.8482 
2 *184:9 *184:11 52.8036 
3 *184:11 *646:la_data_in[20] 18.3339 
*END

*D_NET *185 0.0149345
*CONN
*P la_data_in[21] I
*I *646:la_data_in[21] I *D senseedge_top
*CAP
1 la_data_in[21] 4.40897e-05
2 *646:la_data_in[21] 0.00191365
3 *185:7 0.00558034
4 *185:5 0.00371078
5 *646:la_data_in[21] *646:la_oenb[20] 0
6 *646:la_data_in[21] *646:la_oenb[21] 0.000411289
7 *646:la_data_in[21] *646:la_oenb[22] 0.000400038
8 *646:la_data_in[21] *187:11 0
9 *646:la_data_in[21] *312:11 0.00215808
10 *646:la_data_in[19] *646:la_data_in[21] 0.000490079
11 *646:la_data_in[20] *646:la_data_in[21] 0.00022615
*RES
1 la_data_in[21] *185:5 0.883929 
2 *185:5 *185:7 73.1429 
3 *185:7 *646:la_data_in[21] 28.3319 
*END

*D_NET *186 0.0140489
*CONN
*P la_data_in[22] I
*I *646:la_data_in[22] I *D senseedge_top
*CAP
1 la_data_in[22] 0.0015409
2 *646:la_data_in[22] 0.00172093
3 *186:11 0.00413579
4 *186:9 0.00395577
5 *646:la_data_in[22] *646:la_oenb[20] 0.000118829
6 *646:la_data_in[22] *646:la_oenb[23] 0
7 *646:la_data_in[22] *188:11 0
8 *646:la_data_in[22] *314:11 0.00257667
*RES
1 la_data_in[22] *186:9 31.8482 
2 *186:9 *186:11 49.7679 
3 *186:11 *646:la_data_in[22] 21.0092 
*END

*D_NET *187 0.0136536
*CONN
*P la_data_in[23] I
*I *646:la_data_in[23] I *D senseedge_top
*CAP
1 la_data_in[23] 0.0015409
2 *646:la_data_in[23] 0.000727713
3 *187:11 0.00355614
4 *187:9 0.00436933
5 *646:la_data_in[23] *646:la_oenb[21] 0.000918826
6 *646:la_data_in[23] *646:la_oenb[22] 0.000961096
7 *646:la_data_in[23] *646:la_oenb[23] 0.00049229
8 *646:la_data_in[23] *646:la_oenb[24] 0.000121515
9 *646:la_data_in[23] *313:15 0.000356018
10 *646:la_data_in[23] *315:11 0.000168615
11 *646:la_data_in[23] *316:12 0.000441164
12 *646:la_data_in[21] *187:11 0
*RES
1 la_data_in[23] *187:9 31.8482 
2 *187:9 *187:11 57.6607 
3 *187:11 *646:la_data_in[23] 12.9723 
*END

*D_NET *188 0.0124943
*CONN
*P la_data_in[24] I
*I *646:la_data_in[24] I *D senseedge_top
*CAP
1 la_data_in[24] 0.0015409
2 *646:la_data_in[24] 0.00182508
3 *188:11 0.00430664
4 *188:9 0.00402245
5 *646:la_data_in[24] *646:la_oenb[25] 0.000591494
6 *646:la_data_in[24] *314:11 0.000207703
7 *188:9 *443:7 0
8 *646:la_data_in[22] *188:11 0
*RES
1 la_data_in[24] *188:9 31.8482 
2 *188:9 *188:11 50.9821 
3 *188:11 *646:la_data_in[24] 19.4346 
*END

*D_NET *189 0.0143176
*CONN
*P la_data_in[25] I
*I *646:la_data_in[25] I *D senseedge_top
*CAP
1 la_data_in[25] 0.0015409
2 *646:la_data_in[25] 0.00132332
3 *189:11 0.00406534
4 *189:9 0.00428292
5 *646:la_data_in[25] *646:la_data_in[26] 0.000249148
6 *646:la_data_in[25] *646:la_oenb[24] 0.000428424
7 *646:la_data_in[25] *646:la_oenb[25] 0.000429243
8 *646:la_data_in[25] *315:11 0.000118634
9 *646:la_data_in[25] *317:11 0.00178112
10 *646:la_data_in[25] *318:16 7.1588e-05
11 *189:11 *315:11 2.69575e-05
*RES
1 la_data_in[25] *189:9 31.8482 
2 *189:9 *189:11 56.4464 
3 *189:11 *646:la_data_in[25] 19.0293 
*END

*D_NET *190 0.0138382
*CONN
*P la_data_in[26] I
*I *646:la_data_in[26] I *D senseedge_top
*CAP
1 la_data_in[26] 4.43439e-05
2 *646:la_data_in[26] 0.0015505
3 *190:7 0.00521739
4 *190:5 0.00371123
5 *646:la_data_in[26] *646:la_data_in[27] 0.000567942
6 *646:la_data_in[26] *646:la_oenb[24] 0.000522841
7 *646:la_data_in[26] *646:la_oenb[25] 0.000449548
8 *646:la_data_in[26] *646:la_oenb[26] 0.000349109
9 *646:la_data_in[26] *317:11 0.000638007
10 *646:la_data_in[26] *318:16 0.000135256
11 *646:la_data_in[26] *319:11 0.000402919
12 *646:la_data_in[25] *646:la_data_in[26] 0.000249148
*RES
1 la_data_in[26] *190:5 0.883929 
2 *190:5 *190:7 73.1429 
3 *190:7 *646:la_data_in[26] 27.8779 
*END

*D_NET *191 0.0133222
*CONN
*P la_data_in[27] I
*I *646:la_data_in[27] I *D senseedge_top
*CAP
1 la_data_in[27] 0.0015951
2 *646:la_data_in[27] 0.000891526
3 *191:11 0.00380436
4 *191:9 0.00450793
5 *646:la_data_in[27] *646:la_oenb[25] 0.00041134
6 *646:la_data_in[27] *646:la_oenb[26] 0.000198865
7 *646:la_data_in[27] *318:16 0.000648616
8 *646:la_data_in[27] *319:11 0.000380079
9 *646:la_data_in[27] *320:16 0.000262217
10 *191:11 *317:11 5.42534e-05
11 *646:la_data_in[26] *646:la_data_in[27] 0.000567942
*RES
1 la_data_in[27] *191:9 31.8482 
2 *191:9 *191:11 58.2679 
3 *191:11 *646:la_data_in[27] 11.1753 
*END

*D_NET *192 0.0144117
*CONN
*P la_data_in[28] I
*I *646:la_data_in[28] I *D senseedge_top
*CAP
1 la_data_in[28] 0.0015409
2 *646:la_data_in[28] 0.000700738
3 *192:11 0.00344194
4 *192:9 0.0042821
5 *646:la_data_in[28] *646:la_data_in[29] 0.000699063
6 *646:la_data_in[28] *646:la_oenb[27] 0.00194888
7 *646:la_data_in[28] *646:la_oenb[28] 0.000226427
8 *646:la_data_in[28] *319:11 0.00139865
9 *646:la_data_in[28] *321:19 0.000168416
10 *646:la_data_in[28] *449:11 0
11 *192:11 *646:la_oenb[26] 4.6025e-06
*RES
1 la_data_in[28] *192:9 31.8482 
2 *192:9 *192:11 56.4464 
3 *192:11 *646:la_data_in[28] 13.2497 
*END

*D_NET *193 0.0138686
*CONN
*P la_data_in[29] I
*I *646:la_data_in[29] I *D senseedge_top
*CAP
1 la_data_in[29] 0.0015409
2 *646:la_data_in[29] 0.000610435
3 *193:11 0.00337738
4 *193:9 0.00430784
5 *646:la_data_in[29] *646:la_data_in[30] 0.000605356
6 *646:la_data_in[29] *646:la_oenb[28] 0.00181772
7 *646:la_data_in[29] *646:la_oenb[29] 0.000130759
8 *646:la_data_in[29] *321:19 0.000748808
9 *193:11 *646:la_oenb[27] 3.03519e-05
10 *646:la_data_in[28] *646:la_data_in[29] 0.000699063
*RES
1 la_data_in[29] *193:9 31.8482 
2 *193:9 *193:11 57.0536 
3 *193:11 *646:la_data_in[29] 12.4263 
*END

*D_NET *194 0.0151602
*CONN
*P la_data_in[2] I
*I *646:la_data_in[2] I *D senseedge_top
*CAP
1 la_data_in[2] 0.000284133
2 *646:la_data_in[2] 0.00277568
3 *194:13 0.00681378
4 *194:11 0.00432223
5 *646:la_data_in[2] *646:la_data_in[5] 0.000256033
6 *646:la_data_in[2] *646:la_oenb[2] 7.15738e-05
7 *646:la_data_in[2] *450:13 0
8 *194:11 *439:13 0.000636816
9 *194:13 *646:wbs_adr_i[31] 0
10 *194:13 *322:13 0
*RES
1 la_data_in[2] *194:11 9.50922 
2 *194:11 *194:13 82.0893 
3 *194:13 *646:la_data_in[2] 20.4238 
*END

*D_NET *195 0.0133922
*CONN
*P la_data_in[30] I
*I *646:la_data_in[30] I *D senseedge_top
*CAP
1 la_data_in[30] 0.0015409
2 *646:la_data_in[30] 0.000639285
3 *195:11 0.00338217
4 *195:9 0.00428378
5 *646:la_data_in[30] *646:la_data_in[31] 0.000253311
6 *646:la_data_in[30] *646:la_oenb[29] 4.06573e-06
7 *646:la_data_in[30] *646:la_oenb[30] 0.000231359
8 *646:la_data_in[30] *196:11 0
9 *646:la_data_in[30] *321:19 0.000839344
10 *646:la_data_in[30] *323:11 0.00159416
11 *646:la_data_in[30] *324:13 1.85104e-05
12 *646:la_data_in[29] *646:la_data_in[30] 0.000605356
*RES
1 la_data_in[30] *195:9 31.8482 
2 *195:9 *195:11 56.4464 
3 *195:11 *646:la_data_in[30] 12.8893 
*END

*D_NET *196 0.0135412
*CONN
*P la_data_in[31] I
*I *646:la_data_in[31] I *D senseedge_top
*CAP
1 la_data_in[31] 0.0015409
2 *646:la_data_in[31] 0.000512217
3 *196:11 0.00332264
4 *196:9 0.00435133
5 *646:la_data_in[31] *646:la_data_in[32] 0.00039627
6 *646:la_data_in[31] *646:la_oenb[30] 0.00157941
7 *646:la_data_in[31] *323:11 2.94999e-05
8 *646:la_data_in[31] *324:11 0.00155561
9 *196:9 *451:7 0
10 *646:la_data_in[30] *646:la_data_in[31] 0.000253311
11 *646:la_data_in[30] *196:11 0
*RES
1 la_data_in[31] *196:9 31.8482 
2 *196:9 *196:11 57.6607 
3 *196:11 *646:la_data_in[31] 11.4589 
*END

*D_NET *197 0.0118141
*CONN
*P la_data_in[32] I
*I *646:la_data_in[32] I *D senseedge_top
*CAP
1 la_data_in[32] 0.0015409
2 *646:la_data_in[32] 0.000827951
3 *197:11 0.00367623
4 *197:9 0.00438918
5 *646:la_data_in[32] *646:la_data_in[33] 0.000262217
6 *646:la_data_in[32] *646:la_oenb[31] 9.6155e-05
7 *646:la_data_in[32] *646:la_oenb[32] 0.000344434
8 *646:la_data_in[32] *324:11 0.000280718
9 *646:la_data_in[31] *646:la_data_in[32] 0.00039627
*RES
1 la_data_in[32] *197:9 31.8482 
2 *197:9 *197:11 58.2679 
3 *197:11 *646:la_data_in[32] 10.7076 
*END

*D_NET *198 0.0119481
*CONN
*P la_data_in[33] I
*I *646:la_data_in[33] I *D senseedge_top
*CAP
1 la_data_in[33] 4.32496e-05
2 *646:la_data_in[33] 0.00136887
3 *198:7 0.00491012
4 *198:5 0.00358449
5 *646:la_data_in[33] *646:la_data_in[34] 0.000168416
6 *646:la_data_in[33] *646:la_oenb[31] 0
7 *646:la_data_in[33] *646:la_oenb[32] 0.00138435
8 *646:la_data_in[33] *326:11 0.000226427
9 *198:7 la_data_out[33] 0
10 *646:la_data_in[32] *646:la_data_in[33] 0.000262217
*RES
1 la_data_in[33] *198:5 0.883929 
2 *198:5 *198:7 73.1429 
3 *198:7 *646:la_data_in[33] 26.5807 
*END

*D_NET *199 0.0125247
*CONN
*P la_data_in[34] I
*I *646:la_data_in[34] I *D senseedge_top
*CAP
1 la_data_in[34] 0.0015409
2 *646:la_data_in[34] 0.000415148
3 *199:11 0.00319588
4 *199:9 0.00432163
5 *646:la_data_in[34] *646:la_oenb[33] 0.000280872
6 *646:la_data_in[34] *646:la_oenb[34] 0.000633935
7 *646:la_data_in[34] *326:11 0.000727744
8 *646:la_data_in[34] *327:11 0.00124017
9 *646:la_data_in[33] *646:la_data_in[34] 0.000168416
*RES
1 la_data_in[34] *199:9 31.8482 
2 *199:9 *199:11 57.0536 
3 *199:11 *646:la_data_in[34] 11.5615 
*END

*D_NET *200 0.0110636
*CONN
*P la_data_in[35] I
*I *646:la_data_in[35] I *D senseedge_top
*CAP
1 la_data_in[35] 4.32496e-05
2 *646:la_data_in[35] 0.000668482
3 *200:7 0.00479534
4 *200:5 0.00417011
5 *646:la_data_in[35] *646:la_oenb[34] 0.00105605
6 *646:la_data_in[35] *646:la_oenb[35] 0.000282158
7 *646:la_data_in[35] *201:11 3.04937e-05
8 *646:la_data_in[35] *328:15 1.76735e-05
9 *646:la_data_in[35] *456:11 0
*RES
1 la_data_in[35] *200:5 0.883929 
2 *200:5 *200:7 85.125 
3 *200:7 *646:la_data_in[35] 12.4155 
*END

*D_NET *201 0.011946
*CONN
*P la_data_in[36] I
*I *646:la_data_in[36] I *D senseedge_top
*CAP
1 la_data_in[36] 0.0015409
2 *646:la_data_in[36] 0.00055741
3 *201:11 0.00328127
4 *201:9 0.00426477
5 *646:la_data_in[36] *646:la_oenb[35] 0.00103041
6 *646:la_data_in[36] *646:la_oenb[36] 0.00023163
7 *646:la_data_in[36] *329:11 0.00100915
8 *646:la_data_in[36] *457:11 0
9 *646:la_data_in[35] *201:11 3.04937e-05
*RES
1 la_data_in[36] *201:9 31.8482 
2 *201:9 *201:11 56.4464 
3 *201:11 *646:la_data_in[36] 11.8083 
*END

*D_NET *202 0.0113564
*CONN
*P la_data_in[37] I
*I *646:la_data_in[37] I *D senseedge_top
*CAP
1 la_data_in[37] 0.0015409
2 *646:la_data_in[37] 0.000638603
3 *202:11 0.00338148
4 *202:9 0.00428378
5 *646:la_data_in[37] *646:la_oenb[36] 0.000300035
6 *646:la_data_in[37] *329:11 0.000339633
7 *646:la_data_in[37] *330:11 0.000871926
*RES
1 la_data_in[37] *202:9 31.8482 
2 *202:9 *202:11 56.4464 
3 *202:11 *646:la_data_in[37] 11.5921 
*END

*D_NET *203 0.0107522
*CONN
*P la_data_in[38] I
*I *646:la_data_in[38] I *D senseedge_top
*CAP
1 la_data_in[38] 0.0015409
2 *646:la_data_in[38] 0.000804215
3 *203:11 0.00351824
4 *203:9 0.00425493
5 *646:la_data_in[38] *646:la_oenb[37] 0
6 *646:la_data_in[38] *646:la_oenb[38] 0.000165535
7 *646:la_data_in[38] *330:11 0.000122739
8 *646:la_data_in[38] *331:11 0.000329062
9 *646:la_data_in[38] *459:11 1.65923e-05
10 *203:9 *458:7 0
*RES
1 la_data_in[38] *203:9 31.8482 
2 *203:9 *203:11 55.8393 
3 *203:11 *646:la_data_in[38] 11.9831 
*END

*D_NET *204 0.010646
*CONN
*P la_data_in[39] I
*I *646:la_data_in[39] I *D senseedge_top
*CAP
1 la_data_in[39] 0.0015409
2 *646:la_data_in[39] 0.00074917
3 *204:11 0.0034542
4 *204:9 0.00424594
5 *646:la_data_in[39] *646:la_oenb[38] 0.000655825
6 *646:la_data_in[39] *332:11 0
*RES
1 la_data_in[39] *204:9 31.8482 
2 *204:9 *204:11 55.8393 
3 *204:11 *646:la_data_in[39] 11.8389 
*END

*D_NET *205 0.0146631
*CONN
*P la_data_in[3] I
*I *646:la_data_in[3] I *D senseedge_top
*CAP
1 la_data_in[3] 0.00157106
2 *646:la_data_in[3] 0.00341598
3 *205:13 0.0056877
4 *205:9 0.00384279
5 *646:la_data_in[3] *646:la_data_in[4] 0
6 *646:la_data_in[3] *646:la_data_in[5] 0
7 *646:la_data_in[3] *646:la_data_in[6] 0.000118634
8 *646:la_data_in[3] *238:11 2.69575e-05
9 *646:la_data_in[3] *272:11 0
10 *646:la_data_in[0] *205:13 0
*RES
1 la_data_in[3] *205:9 31.8482 
2 *205:9 *205:13 49.535 
3 *205:13 *646:la_data_in[3] 24.7734 
*END

*D_NET *206 0.0105874
*CONN
*P la_data_in[40] I
*I *646:la_data_in[40] I *D senseedge_top
*CAP
1 la_data_in[40] 4.32496e-05
2 *646:la_data_in[40] 0.00133661
3 *206:7 0.00487785
4 *206:5 0.00358449
5 *646:la_data_in[40] *646:la_oenb[39] 0.000523546
6 *646:la_data_in[40] *334:11 0
7 *646:la_data_in[40] *462:11 0.000221648
8 *206:7 la_data_out[40] 0
9 *206:7 *334:13 0
*RES
1 la_data_in[40] *206:5 0.883929 
2 *206:5 *206:7 73.1429 
3 *206:7 *646:la_data_in[40] 25.2835 
*END

*D_NET *207 0.0102387
*CONN
*P la_data_in[41] I
*I *646:la_data_in[41] I *D senseedge_top
*CAP
1 la_data_in[41] 0.0015409
2 *646:la_data_in[41] 0.000888831
3 *207:11 0.00339023
4 *207:9 0.0040423
5 *646:la_data_in[41] *335:11 0.000376401
*RES
1 la_data_in[41] *207:9 31.8482 
2 *207:9 *207:11 51.5893 
3 *207:11 *646:la_data_in[41] 15.7286 
*END

*D_NET *208 0.0100965
*CONN
*P la_data_in[42] I
*I *646:la_data_in[42] I *D senseedge_top
*CAP
1 la_data_in[42] 0.0015409
2 *646:la_data_in[42] 0.00082454
3 *208:11 0.00329709
4 *208:9 0.00401346
5 *646:la_data_in[42] *646:la_oenb[41] 0.000301786
6 *646:la_data_in[42] *336:15 0.000118684
*RES
1 la_data_in[42] *208:9 31.8482 
2 *208:9 *208:11 50.9821 
3 *208:11 *646:la_data_in[42] 16.1196 
*END

*D_NET *209 0.00980528
*CONN
*P la_data_in[43] I
*I *646:la_data_in[43] I *D senseedge_top
*CAP
1 la_data_in[43] 0.0015409
2 *646:la_data_in[43] 0.000715587
3 *209:11 0.00322598
4 *209:9 0.00405129
5 *646:la_data_in[43] *646:la_oenb[42] 0.000106999
6 *646:la_data_in[43] *337:11 0.000164527
7 *209:11 *646:la_oenb[42] 0
8 *209:11 *336:15 0
*RES
1 la_data_in[43] *209:9 31.8482 
2 *209:9 *209:11 51.5893 
3 *209:11 *646:la_data_in[43] 15.3683 
*END

*D_NET *210 0.00952304
*CONN
*P la_data_in[44] I
*I *646:la_data_in[44] I *D senseedge_top
*CAP
1 la_data_in[44] 0.0015409
2 *646:la_data_in[44] 0.000711555
3 *210:11 0.00318411
4 *210:9 0.00401346
5 *646:la_data_in[44] *646:la_oenb[43] 7.30214e-05
*RES
1 la_data_in[44] *210:9 31.8482 
2 *210:9 *210:11 50.9821 
3 *210:11 *646:la_data_in[44] 15.7592 
*END

*D_NET *211 0.00991949
*CONN
*P la_data_in[45] I
*I *646:la_data_in[45] I *D senseedge_top
*CAP
1 la_data_in[45] 4.32496e-05
2 *646:la_data_in[45] 0.0009657
3 *211:7 0.00391042
4 *211:5 0.00298797
5 *646:la_data_in[45] *646:la_oenb[44] 0.000640696
6 *211:7 la_data_out[45] 0
7 *211:7 *646:la_oenb[44] 0.00137145
8 *211:7 *466:9 0
*RES
1 la_data_in[45] *211:5 0.883929 
2 *211:5 *211:7 73.1429 
3 *211:7 *646:la_data_in[45] 24.4187 
*END

*D_NET *212 0.00908188
*CONN
*P la_data_in[46] I
*I *646:la_data_in[46] I *D senseedge_top
*CAP
1 la_data_in[46] 0.00159293
2 *646:la_data_in[46] 0.00294801
3 *212:9 0.00454094
*RES
1 la_data_in[46] *212:9 32.8839 
2 *212:9 *646:la_data_in[46] 58.8125 
*END

*D_NET *213 0.00875428
*CONN
*P la_data_in[47] I
*I *646:la_data_in[47] I *D senseedge_top
*CAP
1 la_data_in[47] 0.00153171
2 *646:la_data_in[47] 0.00284543
3 *213:9 0.00437714
4 *646:la_data_in[47] *341:9 0
5 *213:9 la_data_out[47] 0
*RES
1 la_data_in[47] *213:9 31.6518 
2 *213:9 *646:la_data_in[47] 58.8125 
*END

*D_NET *214 0.00866155
*CONN
*P la_data_in[48] I
*I *646:la_data_in[48] I *D senseedge_top
*CAP
1 la_data_in[48] 6.33454e-05
2 *646:la_data_in[48] 0.00426743
3 *214:5 0.00433077
*RES
1 la_data_in[48] *214:5 1.29464 
2 *214:5 *646:la_data_in[48] 88.0982 
*END

*D_NET *215 0.00877301
*CONN
*P la_data_in[49] I
*I *646:la_data_in[49] I *D senseedge_top
*CAP
1 la_data_in[49] 0.0015409
2 *646:la_data_in[49] 0.0028456
3 *215:9 0.0043865
4 *215:9 *470:7 0
*RES
1 la_data_in[49] *215:9 31.8482 
2 *215:9 *646:la_data_in[49] 58.8125 
*END

*D_NET *216 0.01464
*CONN
*P la_data_in[4] I
*I *646:la_data_in[4] I *D senseedge_top
*CAP
1 la_data_in[4] 4.32496e-05
2 *646:la_data_in[4] 0.00384685
3 *216:7 0.00707902
4 *216:5 0.00327542
5 *646:la_data_in[4] *366:11 0
6 *646:la_data_in[4] *494:13 0
7 *216:7 *646:la_oenb[0] 0.000395489
8 *216:7 *461:9 0
9 *216:7 *461:11 0
10 *646:la_data_in[1] *216:7 0
11 *646:la_data_in[3] *646:la_data_in[4] 0
*RES
1 la_data_in[4] *216:5 0.883929 
2 *216:5 *216:7 69.3393 
3 *216:7 *646:la_data_in[4] 34.1827 
*END

*D_NET *217 0.00862135
*CONN
*P la_data_in[50] I
*I *646:la_data_in[50] I *D senseedge_top
*CAP
1 la_data_in[50] 4.32496e-05
2 *646:la_data_in[50] 0.00426743
3 *217:5 0.00431068
*RES
1 la_data_in[50] *217:5 0.883929 
2 *217:5 *646:la_data_in[50] 88.0982 
*END

*D_NET *218 0.00875428
*CONN
*P la_data_in[51] I
*I *646:la_data_in[51] I *D senseedge_top
*CAP
1 la_data_in[51] 0.000646652
2 *646:la_data_in[51] 0.00373049
3 *218:9 0.00437714
*RES
1 la_data_in[51] *218:9 13.2946 
2 *218:9 *646:la_data_in[51] 77.1696 
*END

*D_NET *219 0.00883676
*CONN
*P la_data_in[52] I
*I *646:la_data_in[52] I *D senseedge_top
*CAP
1 la_data_in[52] 0.000103537
2 *646:la_data_in[52] 0.000803305
3 *219:7 0.00431484
4 *219:5 0.00361507
5 *219:7 *347:7 0
*RES
1 la_data_in[52] *219:5 2.11607 
2 *219:5 *219:7 72.5357 
3 *219:7 *646:la_data_in[52] 16.6339 
*END

*D_NET *220 0.0090322
*CONN
*P la_data_in[53] I
*I *646:la_data_in[53] I *D senseedge_top
*CAP
1 la_data_in[53] 0.00139566
2 *646:la_data_in[53] 0.00312043
3 *220:13 0.0045161
4 *220:13 *348:5 0
*RES
1 la_data_in[53] *220:13 32.4697 
2 *220:13 *646:la_data_in[53] 64.4196 
*END

*D_NET *221 0.00994974
*CONN
*P la_data_in[54] I
*I *646:la_data_in[54] I *D senseedge_top
*CAP
1 la_data_in[54] 4.32496e-05
2 *646:la_data_in[54] 0.000966022
3 *221:7 0.00359286
4 *221:5 0.00267009
5 *221:7 *349:5 0.00267752
*RES
1 la_data_in[54] *221:5 0.883929 
2 *221:5 *221:7 73.1429 
3 *221:7 *646:la_data_in[54] 19.9196 
*END

*D_NET *222 0.0107363
*CONN
*P la_data_in[55] I
*I *646:la_data_in[55] I *D senseedge_top
*CAP
1 la_data_in[55] 0.00112792
2 *646:la_data_in[55] 0.00292052
3 *222:13 0.00404845
4 *646:la_data_in[55] *477:13 0.000946306
5 *222:13 *350:5 0.00169312
*RES
1 la_data_in[55] *222:13 33.1687 
2 *222:13 *646:la_data_in[55] 64.4196 
*END

*D_NET *223 0.00982086
*CONN
*P la_data_in[56] I
*I *646:la_data_in[56] I *D senseedge_top
*CAP
1 la_data_in[56] 0.00125632
2 *646:la_data_in[56] 0.00358964
3 *223:13 0.00484596
4 *646:la_data_in[56] *478:13 5.59239e-05
5 *223:13 la_data_out[56] 0
6 *223:13 *646:la_oenb[56] 0
7 *223:13 *478:13 7.30149e-05
*RES
1 la_data_in[56] *223:13 24.4238 
2 *223:13 *646:la_data_in[56] 74.1339 
*END

*D_NET *224 0.00983957
*CONN
*P la_data_in[57] I
*I *646:la_data_in[57] I *D senseedge_top
*CAP
1 la_data_in[57] 0.00094951
2 *646:la_data_in[57] 0.003954
3 *224:13 0.00490351
4 *646:la_data_in[57] la_data_out[56] 0
5 *224:13 *352:5 0
6 *224:13 *479:13 3.25553e-05
*RES
1 la_data_in[57] *224:13 18.6189 
2 *224:13 *646:la_data_in[57] 78.9911 
*END

*D_NET *225 0.0102557
*CONN
*P la_data_in[58] I
*I *646:la_data_in[58] I *D senseedge_top
*CAP
1 la_data_in[58] 0.000696401
2 *646:la_data_in[58] 0.00443143
3 *225:11 0.00512783
4 *646:la_data_in[58] *480:13 0
*RES
1 la_data_in[58] *225:11 9.26433 
2 *225:11 *646:la_data_in[58] 88.0982 
*END

*D_NET *226 0.010491
*CONN
*P la_data_in[59] I
*I *646:la_data_in[59] I *D senseedge_top
*CAP
1 la_data_in[59] 0.00133536
2 *646:la_data_in[59] 0.00312166
3 *226:13 0.00445702
4 *646:la_data_in[59] la_data_out[58] 0.001577
5 *646:la_data_in[59] *481:13 0
*RES
1 la_data_in[59] *226:13 22.9608 
2 *226:13 *646:la_data_in[59] 75.3482 
*END

*D_NET *227 0.0150854
*CONN
*P la_data_in[5] I
*I *646:la_data_in[5] I *D senseedge_top
*CAP
1 la_data_in[5] 4.32496e-05
2 *646:la_data_in[5] 0.00363819
3 *227:7 0.00718555
4 *227:5 0.00359061
5 *646:la_data_in[5] *646:la_data_in[6] 0
6 *646:la_data_in[5] *646:la_oenb[2] 0
7 *646:la_data_in[5] *646:la_oenb[4] 0
8 *646:la_data_in[5] *646:la_oenb[5] 0.000371738
9 *646:la_data_in[5] *646:la_oenb[7] 0
10 *646:la_data_in[5] *450:13 0
11 *646:la_data_in[5] *505:11 0
12 *227:7 *355:13 0
13 *227:7 *450:13 0
14 *646:la_data_in[2] *646:la_data_in[5] 0.000256033
15 *646:la_data_in[3] *646:la_data_in[5] 0
*RES
1 la_data_in[5] *227:5 0.883929 
2 *227:5 *227:7 72.5357 
3 *227:7 *646:la_data_in[5] 31.7695 
*END

*D_NET *228 0.0120958
*CONN
*P la_data_in[60] I
*I *646:la_data_in[60] I *D senseedge_top
*CAP
1 la_data_in[60] 0.00150089
2 *646:la_data_in[60] 0.00279797
3 *228:13 0.00429886
4 *646:la_data_in[60] *354:15 0.00297769
5 *228:13 *482:13 0.000520432
*RES
1 la_data_in[60] *228:13 27.0883 
2 *228:13 *646:la_data_in[60] 71.0982 
*END

*D_NET *229 0.010741
*CONN
*P la_data_in[61] I
*I *646:la_data_in[61] I *D senseedge_top
*CAP
1 la_data_in[61] 4.32496e-05
2 *646:la_data_in[61] 0.00221555
3 *229:7 0.00490342
4 *229:5 0.00273112
5 *646:la_data_in[61] *484:15 0.000847651
6 *229:7 *646:la_data_in[62] 0
7 *229:7 *646:la_oenb[61] 0
8 *229:7 *484:9 0
*RES
1 la_data_in[61] *229:5 0.883929 
2 *229:5 *229:7 54.7679 
3 *229:7 *646:la_data_in[61] 42.3402 
*END

*D_NET *230 0.0108972
*CONN
*P la_data_in[62] I
*I *646:la_data_in[62] I *D senseedge_top
*CAP
1 la_data_in[62] 0.00156151
2 *646:la_data_in[62] 0.00348674
3 *230:13 0.00504825
4 *230:13 la_data_out[61] 0
5 *230:13 la_data_out[62] 0
6 *230:13 *485:13 0.000800652
7 *229:7 *646:la_data_in[62] 0
*RES
1 la_data_in[62] *230:13 27.1801 
2 *230:13 *646:la_data_in[62] 71.7054 
*END

*D_NET *231 0.0109754
*CONN
*P la_data_in[63] I
*I *646:la_data_in[63] I *D senseedge_top
*CAP
1 la_data_in[63] 0.00179963
2 *646:la_data_in[63] 0.00346541
3 *231:13 0.00526504
4 *646:la_data_in[63] la_data_out[62] 0
5 *231:13 la_data_out[62] 0
6 *231:13 la_data_out[63] 0
7 *231:13 *646:la_data_in[64] 0.000445322
8 *231:13 *359:13 0
9 *231:13 *360:9 0
10 *231:13 *487:13 0
*RES
1 la_data_in[63] *231:13 27.5424 
2 *231:13 *646:la_data_in[63] 71.0982 
*END

*D_NET *232 0.0116772
*CONN
*P la_data_in[64] I
*I *646:la_data_in[64] I *D senseedge_top
*CAP
1 la_data_in[64] 0.00123733
2 *646:la_data_in[64] 0.00363782
3 *232:13 0.00487515
4 *646:la_data_in[64] *360:9 0
5 *232:13 *646:la_data_in[65] 0.000505285
6 *232:13 *487:13 0.000976314
7 *231:13 *646:la_data_in[64] 0.000445322
*RES
1 la_data_in[64] *232:13 22.3447 
2 *232:13 *646:la_data_in[64] 76.5625 
*END

*D_NET *233 0.0109343
*CONN
*P la_data_in[65] I
*I *646:la_data_in[65] I *D senseedge_top
*CAP
1 la_data_in[65] 0.00108576
2 *646:la_data_in[65] 0.00390685
3 *233:13 0.00499261
4 *233:13 la_data_out[64] 0.000313288
5 *233:13 la_data_out[65] 0
6 *233:13 *646:la_data_in[66] 5.59239e-05
7 *233:13 *234:13 7.4607e-05
8 *232:13 *646:la_data_in[65] 0.000505285
*RES
1 la_data_in[65] *233:13 16.4174 
2 *233:13 *646:la_data_in[65] 82.6339 
*END

*D_NET *234 0.0109522
*CONN
*P la_data_in[66] I
*I *646:la_data_in[66] I *D senseedge_top
*CAP
1 la_data_in[66] 0.00100143
2 *646:la_data_in[66] 0.00403733
3 *234:13 0.00503876
4 *234:13 la_data_out[65] 0
5 *234:13 la_data_out[66] 0.000744121
6 *234:13 *363:5 0
7 *233:13 *646:la_data_in[66] 5.59239e-05
8 *233:13 *234:13 7.4607e-05
*RES
1 la_data_in[66] *234:13 16.3651 
2 *234:13 *646:la_data_in[66] 83.2411 
*END

*D_NET *235 0.0113566
*CONN
*P la_data_in[67] I
*I *646:la_data_in[67] I *D senseedge_top
*CAP
1 la_data_in[67] 0.00166439
2 *646:la_data_in[67] 0.00366067
3 *235:13 0.00532506
4 *646:la_data_in[67] *489:13 0
5 *235:13 *646:la_data_in[68] 0
6 *235:13 *490:13 0.000706538
7 *235:13 *491:13 0
*RES
1 la_data_in[67] *235:13 24.1355 
2 *235:13 *646:la_data_in[67] 75.3482 
*END

*D_NET *236 0.0110663
*CONN
*P la_data_in[68] I
*I *646:la_data_in[68] I *D senseedge_top
*CAP
1 la_data_in[68] 0.00136454
2 *646:la_data_in[68] 0.00408984
3 *236:13 0.00545438
4 *646:la_data_in[68] *490:13 0
5 *236:13 la_data_out[67] 0
6 *236:13 la_data_out[69] 0.000157556
7 *236:13 *491:13 0
8 *236:13 *492:13 0
9 *235:13 *646:la_data_in[68] 0
*RES
1 la_data_in[68] *236:13 15.7796 
2 *236:13 *646:la_data_in[68] 83.8482 
*END

*D_NET *237 0.0128705
*CONN
*P la_data_in[69] I
*I *646:la_data_in[69] I *D senseedge_top
*CAP
1 la_data_in[69] 0.00172492
2 *646:la_data_in[69] 0.00366569
3 *237:13 0.00539061
4 *646:la_data_in[69] la_data_out[69] 0
5 *646:la_data_in[69] *491:13 0.000153396
6 *237:13 la_data_out[68] 0.000974805
7 *237:13 *367:5 0.000942629
8 *237:13 *491:13 1.84229e-05
*RES
1 la_data_in[69] *237:13 26.6559 
2 *237:13 *646:la_data_in[69] 73.5268 
*END

*D_NET *238 0.0145524
*CONN
*P la_data_in[6] I
*I *646:la_data_in[6] I *D senseedge_top
*CAP
1 la_data_in[6] 0.00152993
2 *646:la_data_in[6] 0.00338273
3 *238:11 0.00567345
4 *238:9 0.00382066
5 *646:la_data_in[6] *646:la_data_in[7] 0
6 *646:la_data_in[6] *646:la_oenb[5] 0
7 *238:9 *483:13 0
8 *646:la_data_in[3] *646:la_data_in[6] 0.000118634
9 *646:la_data_in[3] *238:11 2.69575e-05
10 *646:la_data_in[5] *646:la_data_in[6] 0
*RES
1 la_data_in[6] *238:9 31.2411 
2 *238:9 *238:11 46.7321 
3 *238:11 *646:la_data_in[6] 26.9997 
*END

*D_NET *239 0.0146584
*CONN
*P la_data_in[70] I
*I *646:la_data_in[70] I *D senseedge_top
*CAP
1 la_data_in[70] 0.00093019
2 *646:la_data_in[70] 0.00412771
3 *239:13 0.0050579
4 *646:la_data_in[70] *492:13 0.000347392
5 *646:la_data_in[70] *493:15 0
6 *239:13 la_data_out[69] 0.000272319
7 *239:13 la_data_out[70] 0.00200168
8 *239:13 la_data_out[71] 0.000199763
9 *239:13 *493:13 0.00172148
*RES
1 la_data_in[70] *239:13 16.6967 
2 *239:13 *646:la_data_in[70] 84.4554 
*END

*D_NET *240 0.0117231
*CONN
*P la_data_in[71] I
*I *646:la_data_in[71] I *D senseedge_top
*CAP
1 la_data_in[71] 0.002106
2 *646:la_data_in[71] 0.00363122
3 *240:13 0.00573721
4 *240:13 *646:la_oenb[72] 0
5 *240:13 *369:5 0
6 *240:13 *496:13 0.000248707
*RES
1 la_data_in[71] *240:13 25.4633 
2 *240:13 *646:la_data_in[71] 74.7411 
*END

*D_NET *241 0.0117756
*CONN
*P la_data_in[72] I
*I *646:la_data_in[72] I *D senseedge_top
*CAP
1 la_data_in[72] 0.00271092
2 *646:la_data_in[72] 0.00309268
3 *241:13 0.0058036
4 *241:13 *646:la_oenb[73] 0
5 *241:13 *242:13 0
6 *241:13 *370:5 0
7 *241:13 *495:13 0.000168408
*RES
1 la_data_in[72] *241:13 36.536 
2 *241:13 *646:la_data_in[72] 63.8125 
*END

*D_NET *242 0.0127395
*CONN
*P la_data_in[73] I
*I *646:la_data_in[73] I *D senseedge_top
*CAP
1 la_data_in[73] 0.00228532
2 *646:la_data_in[73] 0.00330875
3 *242:13 0.00559407
4 *242:13 *498:13 0.00155132
5 *241:13 *242:13 0
*RES
1 la_data_in[73] *242:13 32.8409 
2 *242:13 *646:la_data_in[73] 68.0625 
*END

*D_NET *243 0.0122972
*CONN
*P la_data_in[74] I
*I *646:la_data_in[74] I *D senseedge_top
*CAP
1 la_data_in[74] 0.00134616
2 *646:la_data_in[74] 0.000782853
3 *243:15 0.00430211
4 *243:13 0.00486541
5 *243:13 la_data_out[73] 0
6 *243:13 la_data_out[74] 0.000889929
7 *243:13 *497:13 0.000110729
8 *243:15 la_data_out[74] 0
*RES
1 la_data_in[74] *243:13 13.4844 
2 *243:13 *243:15 71.9286 
3 *243:15 *646:la_data_in[74] 16.2232 
*END

*D_NET *244 0.0127287
*CONN
*P la_data_in[75] I
*I *646:la_data_in[75] I *D senseedge_top
*CAP
1 la_data_in[75] 0.00205621
2 *646:la_data_in[75] 0.00346541
3 *244:13 0.00552163
4 *244:13 la_data_out[75] 8.27627e-05
5 *244:13 *646:la_oenb[76] 6.19632e-05
6 *244:13 *245:13 0.00125045
7 *244:13 *498:13 0
8 *244:13 *499:9 0
9 *244:13 *499:13 0
10 *244:13 *500:13 0.00029025
*RES
1 la_data_in[75] *244:13 29.8268 
2 *244:13 *646:la_data_in[75] 71.0982 
*END

*D_NET *245 0.014365
*CONN
*P la_data_in[76] I
*I *646:la_data_in[76] I *D senseedge_top
*CAP
1 la_data_in[76] 0.00175569
2 *646:la_data_in[76] 0.00349513
3 *245:13 0.00525083
4 *245:13 *646:la_data_in[78] 0
5 *245:13 *646:la_oenb[77] 0
6 *245:13 *500:13 0.00243621
7 *245:13 *501:13 0.000176662
8 *244:13 *245:13 0.00125045
*RES
1 la_data_in[76] *245:13 29.3638 
2 *245:13 *646:la_data_in[76] 71.7054 
*END

*D_NET *246 0.0127841
*CONN
*P la_data_in[77] I
*I *646:la_data_in[77] I *D senseedge_top
*CAP
1 la_data_in[77] 0.00187561
2 *646:la_data_in[77] 0.00183253
3 *246:17 0.00382065
4 *246:9 0.00386373
5 *246:9 *646:la_data_in[79] 0.000670825
6 *246:17 *646:la_data_in[79] 0.000720798
*RES
1 la_data_in[77] *246:9 44.1696 
2 *246:9 *246:17 20.8944 
3 *246:17 *646:la_data_in[77] 37.7054 
*END

*D_NET *247 0.0131945
*CONN
*P la_data_in[78] I
*I *646:la_data_in[78] I *D senseedge_top
*CAP
1 la_data_in[78] 0.00197061
2 *646:la_data_in[78] 0.00380268
3 *247:13 0.00577329
4 *247:13 la_data_out[76] 0
5 *247:13 *646:la_data_in[80] 0.000157556
6 *247:13 *502:13 0.00149038
7 *245:13 *646:la_data_in[78] 0
*RES
1 la_data_in[78] *247:13 23.7248 
2 *247:13 *646:la_data_in[78] 77.7768 
*END

*D_NET *248 0.0148118
*CONN
*P la_data_in[79] I
*I *646:la_data_in[79] I *D senseedge_top
*CAP
1 la_data_in[79] 0.00245218
2 *646:la_data_in[79] 0.00283972
3 *248:13 0.0052919
4 *646:la_data_in[79] la_data_out[79] 0
5 *248:13 *646:la_data_in[81] 0.000587276
6 *248:13 *504:13 0.00224914
7 *246:9 *646:la_data_in[79] 0.000670825
8 *246:17 *646:la_data_in[79] 0.000720798
*RES
1 la_data_in[79] *248:13 34.1904 
2 *248:13 *646:la_data_in[79] 67.4554 
*END

*D_NET *249 0.0157397
*CONN
*P la_data_in[7] I
*I *646:la_data_in[7] I *D senseedge_top
*CAP
1 la_data_in[7] 0.00124021
2 *646:la_data_in[7] 0.0017736
3 *249:15 0.00438454
4 *249:13 0.00385115
5 *646:la_data_in[7] *646:la_oenb[5] 0.000482221
6 *646:la_data_in[7] *646:la_oenb[7] 0
7 *249:13 *260:11 0
8 *249:13 *483:13 0.000771157
9 *249:13 *494:13 0.000304867
10 *249:15 la_data_out[8] 0
11 *249:15 *355:11 0.00109589
12 *249:15 *388:13 0.00183611
13 *646:la_data_in[6] *646:la_data_in[7] 0
*RES
1 la_data_in[7] *249:13 15.6553 
2 *249:13 *249:15 77.2321 
3 *249:15 *646:la_data_in[7] 18.3951 
*END

*D_NET *250 0.0132892
*CONN
*P la_data_in[80] I
*I *646:la_data_in[80] I *D senseedge_top
*CAP
1 la_data_in[80] 0.00200315
2 *646:la_data_in[80] 0.00386039
3 *250:13 0.00586354
4 *250:13 la_data_out[80] 0
5 *250:13 la_data_out[81] 0
6 *250:13 *646:la_data_in[82] 0.000101232
7 *250:13 *506:13 0.00130336
8 *247:13 *646:la_data_in[80] 0.000157556
*RES
1 la_data_in[80] *250:13 22.6024 
2 *250:13 *646:la_data_in[80] 79.5982 
*END

*D_NET *251 0.0149503
*CONN
*P la_data_in[81] I
*I *646:la_data_in[81] I *D senseedge_top
*CAP
1 la_data_in[81] 0.00233189
2 *646:la_data_in[81] 0.00364487
3 *251:13 0.00597676
4 *251:13 la_data_out[80] 0.00240954
5 *251:13 *646:la_data_in[83] 0
6 *251:13 *506:13 0
7 *248:13 *646:la_data_in[81] 0.000587276
*RES
1 la_data_in[81] *251:13 27.265 
2 *251:13 *646:la_data_in[81] 74.7411 
*END

*D_NET *252 0.014735
*CONN
*P la_data_in[82] I
*I *646:la_data_in[82] I *D senseedge_top
*CAP
1 la_data_in[82] 0.00189895
2 *646:la_data_in[82] 0.00415495
3 *252:13 0.0060539
4 *646:la_data_in[82] *504:13 0
5 *252:13 la_data_out[81] 0.00252599
6 *252:13 *253:15 0
7 *252:13 *254:13 0
8 *252:13 *506:13 0
9 *250:13 *646:la_data_in[82] 0.000101232
*RES
1 la_data_in[82] *252:13 18.9812 
2 *252:13 *646:la_data_in[82] 83.2411 
*END

*D_NET *253 0.0149887
*CONN
*P la_data_in[83] I
*I *646:la_data_in[83] I *D senseedge_top
*CAP
1 la_data_in[83] 0.00150394
2 *646:la_data_in[83] 0.00427601
3 *253:15 0.00577996
4 *646:la_data_in[83] *506:13 0
5 *253:15 la_data_out[81] 0
6 *253:15 *507:13 0.00171663
7 *253:15 *508:11 0.000946399
8 *253:15 *509:11 0.000381119
9 *253:15 *510:13 0.000384608
10 *251:13 *646:la_data_in[83] 0
11 *252:13 *253:15 0
*RES
1 la_data_in[83] *253:15 14.3437 
2 *253:15 *646:la_data_in[83] 87.4911 
*END

*D_NET *254 0.0135314
*CONN
*P la_data_in[84] I
*I *646:la_data_in[84] I *D senseedge_top
*CAP
1 la_data_in[84] 0.00263955
2 *646:la_data_in[84] 0.00378198
3 *254:13 0.00642153
4 *646:la_data_in[84] *509:13 0
5 *254:13 la_data_out[84] 0.000688343
6 *254:13 *384:5 0
7 *252:13 *254:13 0
*RES
1 la_data_in[84] *254:13 25.9697 
2 *254:13 *646:la_data_in[84] 77.7768 
*END

*D_NET *255 0.0149818
*CONN
*P la_data_in[85] I
*I *646:la_data_in[85] I *D senseedge_top
*CAP
1 la_data_in[85] 0.00166927
2 *646:la_data_in[85] 0.00411775
3 *255:13 0.00578702
4 *646:la_data_in[85] *510:15 0
5 *255:13 la_data_out[86] 0.00181484
6 *255:13 *646:la_oenb[87] 0
7 *255:13 *257:13 0.000727736
8 *255:13 *385:5 5.04362e-05
9 *255:13 *510:13 0.000814768
*RES
1 la_data_in[85] *255:13 18.61 
2 *255:13 *646:la_data_in[85] 84.4554 
*END

*D_NET *256 0.0145163
*CONN
*P la_data_in[86] I
*I *646:la_data_in[86] I *D senseedge_top
*CAP
1 la_data_in[86] 0.00172192
2 *646:la_data_in[86] 0.00435439
3 *256:11 0.00607632
4 *646:la_data_in[86] *381:13 0
5 *256:11 *258:11 0.0009217
6 *256:11 *509:11 7.7488e-05
7 *256:11 *511:13 0.00103779
8 *256:11 *513:13 0.000326674
*RES
1 la_data_in[86] *256:11 14.7197 
2 *256:11 *646:la_data_in[86] 88.7054 
*END

*D_NET *257 0.0147246
*CONN
*P la_data_in[87] I
*I *646:la_data_in[87] I *D senseedge_top
*CAP
1 la_data_in[87] 0.00183874
2 *646:la_data_in[87] 0.00408176
3 *257:13 0.00592051
4 *646:la_data_in[87] la_data_out[84] 0
5 *257:13 la_data_out[86] 0.00138069
6 *257:13 la_data_out[88] 0.000255063
7 *257:13 la_data_out[89] 0.000520107
8 *257:13 *512:11 0
9 *255:13 *257:13 0.000727736
*RES
1 la_data_in[87] *257:13 19.6496 
2 *257:13 *646:la_data_in[87] 83.8482 
*END

*D_NET *258 0.0189283
*CONN
*P la_data_in[88] I
*I *646:la_data_in[88] I *D senseedge_top
*CAP
1 la_data_in[88] 0.00123442
2 *646:la_data_in[88] 0.004322
3 *258:11 0.00555642
4 *646:la_data_in[88] la_data_out[85] 0
5 *646:la_data_in[88] *383:15 0
6 *258:11 *259:11 0.00270142
7 *258:11 *261:13 0.000331565
8 *258:11 *513:13 0.00386075
9 *256:11 *258:11 0.0009217
*RES
1 la_data_in[88] *258:11 15.08 
2 *258:11 *646:la_data_in[88] 88.0982 
*END

*D_NET *259 0.0158953
*CONN
*P la_data_in[89] I
*I *646:la_data_in[89] I *D senseedge_top
*CAP
1 la_data_in[89] 0.00176972
2 *646:la_data_in[89] 0.00081222
3 *259:13 0.00439793
4 *259:11 0.00535542
5 *646:la_data_in[89] *387:9 0
6 *259:11 la_data_out[91] 0.000376473
7 *259:11 *646:la_oenb[88] 0.000100938
8 *259:11 *261:13 0.000381219
9 *259:13 la_data_out[86] 0
10 *259:13 *387:9 0
11 *259:13 *512:9 0
12 *259:13 *512:11 0
13 *258:11 *259:11 0.00270142
*RES
1 la_data_in[89] *259:11 15.1521 
2 *259:11 *259:13 73.1429 
3 *259:13 *646:la_data_in[89] 16.6339 
*END

*D_NET *260 0.0144628
*CONN
*P la_data_in[8] I
*I *646:la_data_in[8] I *D senseedge_top
*CAP
1 la_data_in[8] 0.00155718
2 *646:la_data_in[8] 0.00177338
3 *260:13 0.005362
4 *260:11 0.00514579
5 *646:la_data_in[8] *388:11 0
6 *646:la_data_in[8] *411:15 0.000624494
7 *260:13 *399:13 0
8 *249:13 *260:11 0
*RES
1 la_data_in[8] *260:11 11.9812 
2 *260:11 *260:13 72.9821 
3 *260:13 *646:la_data_in[8] 25.6393 
*END

*D_NET *261 0.0176004
*CONN
*P la_data_in[90] I
*I *646:la_data_in[90] I *D senseedge_top
*CAP
1 la_data_in[90] 0.00105813
2 *646:la_data_in[90] 0.00422959
3 *261:13 0.00528772
4 *646:la_data_in[90] la_data_out[87] 1.90555e-05
5 *261:13 la_data_out[88] 0.000964855
6 *261:13 la_data_out[90] 0.000399983
7 *261:13 la_data_out[91] 0.00246692
8 *261:13 *646:la_oenb[88] 1.36114e-05
9 *261:13 *513:13 0.000543613
10 *261:13 *518:13 0.00190411
11 *258:11 *261:13 0.000331565
12 *259:11 *261:13 0.000381219
*RES
1 la_data_in[90] *261:13 16.7797 
2 *261:13 *646:la_data_in[90] 86.8839 
*END

*D_NET *262 0.0143536
*CONN
*P la_data_in[91] I
*I *646:la_data_in[91] I *D senseedge_top
*CAP
1 la_data_in[91] 0.00324382
2 *646:la_data_in[91] 0.00393296
3 *262:13 0.00717678
4 *262:13 la_data_out[89] 0
5 *262:13 la_data_out[90] 0
6 *262:13 la_data_out[93] 0
7 *262:13 *264:13 0
8 *262:13 *518:13 0
*RES
1 la_data_in[91] *262:13 24.2312 
2 *262:13 *646:la_data_in[91] 80.8125 
*END

*D_NET *263 0.0197617
*CONN
*P la_data_in[92] I
*I *646:la_data_in[92] I *D senseedge_top
*CAP
1 la_data_in[92] 0.00130105
2 *646:la_data_in[92] 0.00429688
3 *263:11 0.00559793
4 *646:la_data_in[92] la_data_out[89] 9.17147e-05
5 *263:11 la_data_out[91] 0.00373814
6 *263:11 la_data_out[92] 0.000322767
7 *263:11 *519:11 0.00376538
8 *263:11 *520:13 0.000647802
*RES
1 la_data_in[92] *263:11 16.1394 
2 *263:11 *646:la_data_in[92] 88.0982 
*END

*D_NET *264 0.0152142
*CONN
*P la_data_in[93] I
*I *646:la_data_in[93] I *D senseedge_top
*CAP
1 la_data_in[93] 0.00340127
2 *646:la_data_in[93] 0.00376134
3 *264:13 0.00716261
4 *264:13 la_data_out[94] 0
5 *264:13 *646:la_data_in[96] 0.000888948
6 *262:13 *264:13 0
*RES
1 la_data_in[93] *264:13 29.4991 
2 *264:13 *646:la_data_in[93] 74.7411 
*END

*D_NET *265 0.0149689
*CONN
*P la_data_in[94] I
*I *646:la_data_in[94] I *D senseedge_top
*CAP
1 la_data_in[94] 0.00155676
2 *646:la_data_in[94] 0.00338933
3 *265:11 0.0059277
4 *265:9 0.00409513
5 *646:la_data_in[94] *395:11 0
6 *265:9 *646:la_data_in[97] 0
7 *265:11 *646:la_data_in[97] 0
*RES
1 la_data_in[94] *265:9 31.2411 
2 *265:9 *265:11 52.1964 
3 *265:11 *646:la_data_in[94] 21.8237 
*END

*D_NET *266 0.0197034
*CONN
*P la_data_in[95] I
*I *646:la_data_in[95] I *D senseedge_top
*CAP
1 la_data_in[95] 0.00124607
2 *646:la_data_in[95] 0.00422559
3 *266:13 0.00547165
4 *646:la_data_in[95] *521:15 0
5 *266:13 la_data_out[93] 0.000914959
6 *266:13 la_data_out[95] 0.00114313
7 *266:13 *267:13 0.00354657
8 *266:13 *269:13 0.00026221
9 *266:13 *520:13 0.00289321
*RES
1 la_data_in[95] *266:13 18.6623 
2 *266:13 *646:la_data_in[95] 86.2768 
*END

*D_NET *267 0.019735
*CONN
*P la_data_in[96] I
*I *646:la_data_in[96] I *D senseedge_top
*CAP
1 la_data_in[96] 0.00140271
2 *646:la_data_in[96] 0.00399464
3 *267:13 0.00539735
4 *267:13 la_data_out[93] 0.000609506
5 *267:13 la_data_out[98] 0.00147815
6 *267:13 *269:13 0.000171991
7 *267:13 *270:13 0
8 *267:13 *521:13 0.00132976
9 *267:13 *525:21 0.000915339
10 *264:13 *646:la_data_in[96] 0.000888948
11 *266:13 *267:13 0.00354657
*RES
1 la_data_in[96] *267:13 19.4136 
2 *267:13 *646:la_data_in[96] 85.6696 
*END

*D_NET *268 0.0176216
*CONN
*P la_data_in[97] I
*I *646:la_data_in[97] I *D senseedge_top
*CAP
1 la_data_in[97] 0.00175041
2 *646:la_data_in[97] 0.00440827
3 *268:11 0.00615868
4 *268:11 *270:11 0.000381119
5 *268:11 *523:11 0.00492316
6 *265:9 *646:la_data_in[97] 0
7 *265:11 *646:la_data_in[97] 0
*RES
1 la_data_in[97] *268:11 16.7376 
2 *268:11 *646:la_data_in[97] 89.3125 
*END

*D_NET *269 0.0211689
*CONN
*P la_data_in[98] I
*I *646:la_data_in[98] I *D senseedge_top
*CAP
1 la_data_in[98] 0.00121969
2 *646:la_data_in[98] 0.00425444
3 *269:13 0.00547413
4 *646:la_data_in[98] *521:13 0
5 *269:13 la_data_out[95] 0.000915339
6 *269:13 la_data_out[98] 0.00534717
7 *269:13 *270:11 0.00152058
8 *269:13 *401:13 0.00145405
9 *269:13 *522:17 0.000321942
10 *269:13 *523:11 0.000114279
11 *269:13 *526:15 0.00011307
12 *266:13 *269:13 0.00026221
13 *267:13 *269:13 0.000171991
*RES
1 la_data_in[98] *269:13 19.457 
2 *269:13 *646:la_data_in[98] 86.8839 
*END

*D_NET *270 0.0206897
*CONN
*P la_data_in[99] I
*I *646:la_data_in[99] I *D senseedge_top
*CAP
1 la_data_in[99] 0.00161632
2 *646:la_data_in[99] 0.000820348
3 *270:13 0.00437746
4 *270:11 0.00517343
5 *270:11 *401:13 0.00292849
6 *270:11 *523:11 0.00148451
7 *146:11 *270:11 0.00238749
8 *267:13 *270:13 0
9 *268:11 *270:11 0.000381119
10 *269:13 *270:11 0.00152058
*RES
1 la_data_in[99] *270:11 17.2924 
2 *270:11 *270:13 72.5357 
3 *270:13 *646:la_data_in[99] 16.6339 
*END

*D_NET *271 0.0138729
*CONN
*P la_data_in[9] I
*I *646:la_data_in[9] I *D senseedge_top
*CAP
1 la_data_in[9] 0.00326288
2 *646:la_data_in[9] 0.00367359
3 *271:13 0.00693646
4 *646:la_data_in[9] *294:17 0
5 *271:13 *399:13 0
6 *271:13 *516:13 0
*RES
1 la_data_in[9] *271:13 29.117 
2 *271:13 *646:la_data_in[9] 74.7411 
*END

*D_NET *272 0.0153046
*CONN
*P la_data_out[0] O
*I *646:la_data_out[0] O *D senseedge_top
*CAP
1 la_data_out[0] 4.32496e-05
2 *646:la_data_out[0] 0.00375637
3 *272:13 0.00331557
4 *272:11 0.00702869
5 *272:11 *646:la_oenb[3] 0
6 *272:11 *646:wbs_adr_i[31] 0
7 *272:11 *439:15 0.000769051
8 *272:13 *646:wbs_adr_i[29] 0.000391681
9 *272:13 *400:7 0
10 *272:13 *631:13 0
11 *646:la_data_in[3] *272:11 0
*RES
1 *646:la_data_out[0] *272:11 34.6151 
2 *272:11 *272:13 69.9464 
3 *272:13 la_data_out[0] 0.883929 
*END

*D_NET *273 0.0175503
*CONN
*P la_data_out[100] O
*I *646:la_data_out[100] O *D senseedge_top
*CAP
1 la_data_out[100] 0.00178191
2 *646:la_data_out[100] 0.00405032
3 *273:15 0.0028759
4 *273:11 0.00514431
5 la_data_out[100] *646:la_oenb[103] 0
6 la_data_out[100] *401:13 0
7 *273:11 *646:la_oenb[101] 0
8 *273:11 *646:la_oenb[97] 0
9 *273:11 *396:11 0
10 *646:la_data_in[103] *273:11 0
11 *646:la_data_in[104] la_data_out[100] 0.000950468
12 *646:la_data_in[104] *273:15 0.00274743
*RES
1 *646:la_data_out[100] *273:11 29.1202 
2 *273:11 *273:15 34.75 
3 *273:15 la_data_out[100] 43.2232 
*END

*D_NET *274 0.0201566
*CONN
*P la_data_out[101] O
*I *646:la_data_out[101] O *D senseedge_top
*CAP
1 la_data_out[101] 0.00994158
2 *646:la_data_out[101] 0.00994158
3 la_data_out[101] *405:11 0.000273429
*RES
1 *646:la_data_out[101] la_data_out[101] 33.3798 
*END

*D_NET *275 0.0158152
*CONN
*P la_data_out[102] O
*I *646:la_data_out[102] O *D senseedge_top
*CAP
1 la_data_out[102] 0.00426825
2 *646:la_data_out[102] 0.00363934
3 *275:5 0.0079076
4 *149:13 la_data_out[102] 0
*RES
1 *646:la_data_out[102] *275:5 74.7411 
2 *275:5 la_data_out[102] 31.2287 
*END

*D_NET *276 0.0220267
*CONN
*P la_data_out[103] O
*I *646:la_data_out[103] O *D senseedge_top
*CAP
1 la_data_out[103] 0.00130953
2 *646:la_data_out[103] 0.00424184
3 *276:5 0.00555138
4 la_data_out[103] la_data_out[104] 0.00458621
5 la_data_out[103] *401:13 0.000792635
6 la_data_out[103] *406:13 0.000926159
7 la_data_out[103] *407:13 0.00072525
8 *145:13 *276:5 0
9 *146:11 la_data_out[103] 5.91641e-05
10 *147:13 la_data_out[103] 0.00383449
11 *149:13 la_data_out[103] 0
*RES
1 *646:la_data_out[103] *276:5 86.2768 
2 *276:5 la_data_out[103] 19.8371 
*END

*D_NET *277 0.0204222
*CONN
*P la_data_out[104] O
*I *646:la_data_out[104] O *D senseedge_top
*CAP
1 la_data_out[104] 0.00147548
2 *646:la_data_out[104] 0.00427969
3 *277:5 0.00575517
4 la_data_out[104] *405:11 0.00317078
5 la_data_out[104] *407:13 0.000980009
6 la_data_out[103] la_data_out[104] 0.00458621
7 *146:11 la_data_out[104] 0.000174849
*RES
1 *646:la_data_out[104] *277:5 86.8839 
2 *277:5 la_data_out[104] 19.7848 
*END

*D_NET *278 0.0225043
*CONN
*P la_data_out[105] O
*I *646:la_data_out[105] O *D senseedge_top
*CAP
1 la_data_out[105] 0.00240399
2 *646:la_data_out[105] 0.000799223
3 *278:9 0.00476336
4 *278:7 0.00315859
5 la_data_out[105] *405:11 0.0053995
6 la_data_out[105] *407:13 4.22338e-05
7 la_data_out[105] *409:17 0.000263592
8 *278:9 *402:7 0.00567383
*RES
1 *646:la_data_out[105] *278:7 16.2232 
2 *278:7 *278:9 73.1429 
3 *278:9 la_data_out[105] 18.6617 
*END

*D_NET *279 0.0190284
*CONN
*P la_data_out[106] O
*I *646:la_data_out[106] O *D senseedge_top
*CAP
1 la_data_out[106] 4.32496e-05
2 *646:la_data_out[106] 0.00486145
3 *279:13 0.00206386
4 *279:11 0.00688206
5 *279:13 *284:9 0.00517774
6 *279:13 *412:13 0
7 *646:la_data_in[106] *279:11 0
*RES
1 *646:la_data_out[106] *279:11 42.2 
2 *279:11 *279:13 63.875 
3 *279:13 la_data_out[106] 0.883929 
*END

*D_NET *280 0.0191725
*CONN
*P la_data_out[107] O
*I *646:la_data_out[107] O *D senseedge_top
*CAP
1 la_data_out[107] 0.00260287
2 *646:la_data_out[107] 0.00390312
3 *280:5 0.00650598
4 la_data_out[107] la_data_out[108] 0.00454098
5 la_data_out[107] *646:la_oenb[111] 0
6 la_data_out[107] *406:13 0.000970558
7 la_data_out[107] *408:9 0
8 *280:5 *404:13 0.00048575
9 *149:13 la_data_out[107] 0.000163201
10 *153:13 la_data_out[107] 0
*RES
1 *646:la_data_out[107] *280:5 83.8482 
2 *280:5 la_data_out[107] 23.5431 
*END

*D_NET *281 0.0229218
*CONN
*P la_data_out[108] O
*I *646:la_data_out[108] O *D senseedge_top
*CAP
1 la_data_out[108] 0.00146663
2 *646:la_data_out[108] 0.00415359
3 *281:5 0.00562022
4 la_data_out[108] *406:13 0.0021278
5 la_data_out[108] *407:13 0.00100606
6 la_data_out[108] *409:17 0.00272937
7 la_data_out[108] *413:13 0.0012772
8 la_data_out[107] la_data_out[108] 0.00454098
9 *153:13 la_data_out[108] 0
*RES
1 *646:la_data_out[108] *281:5 84.4554 
2 *281:5 la_data_out[108] 21.5262 
*END

*D_NET *282 0.0230836
*CONN
*P la_data_out[109] O
*I *646:la_data_out[109] O *D senseedge_top
*CAP
1 la_data_out[109] 0.00151905
2 *646:la_data_out[109] 0.00430498
3 *282:5 0.00582403
4 la_data_out[109] *409:17 0.00474457
5 la_data_out[109] *410:15 0.00624257
6 la_data_out[109] *413:13 0.000448422
*RES
1 *646:la_data_out[109] *282:5 86.8839 
2 *282:5 la_data_out[109] 19.5657 
*END

*D_NET *283 0.0137337
*CONN
*P la_data_out[10] O
*I *646:la_data_out[10] O *D senseedge_top
*CAP
1 la_data_out[10] 0.00346718
2 *646:la_data_out[10] 0.00318961
3 *283:5 0.0066568
4 la_data_out[10] la_data_out[12] 0
5 la_data_out[10] *411:13 0
6 la_data_out[10] *527:13 0
7 *283:5 *431:11 0
8 *155:15 la_data_out[10] 0
9 *176:9 *283:5 0.000420085
10 *176:11 *283:5 0
*RES
1 *646:la_data_out[10] *283:5 68.0625 
2 *283:5 la_data_out[10] 35.2408 
*END

*D_NET *284 0.0235759
*CONN
*P la_data_out[110] O
*I *646:la_data_out[110] O *D senseedge_top
*CAP
1 la_data_out[110] 0.00242276
2 *646:la_data_out[110] 0.000799223
3 *284:9 0.00493221
4 *284:7 0.00330868
5 la_data_out[110] *410:15 0.000295544
6 la_data_out[110] *412:13 0.00663972
7 *151:7 *284:9 0
8 *279:13 *284:9 0.00517774
*RES
1 *646:la_data_out[110] *284:7 16.2232 
2 *284:7 *284:9 73.75 
3 *284:9 la_data_out[110] 19.2599 
*END

*D_NET *285 0.0170814
*CONN
*P la_data_out[111] O
*I *646:la_data_out[111] O *D senseedge_top
*CAP
1 la_data_out[111] 0.00540422
2 *646:la_data_out[111] 0.00313647
3 *285:5 0.00854068
4 *156:17 la_data_out[111] 0
5 *157:15 la_data_out[111] 0
6 *160:13 la_data_out[111] 0
*RES
1 *646:la_data_out[111] *285:5 61.9911 
2 *285:5 la_data_out[111] 45.9748 
*END

*D_NET *286 0.0185477
*CONN
*P la_data_out[112] O
*I *646:la_data_out[112] O *D senseedge_top
*CAP
1 la_data_out[112] 0.00157577
2 *646:la_data_out[112] 0.00434086
3 *286:13 0.00421273
4 *286:11 0.00697781
5 la_data_out[112] *646:la_oenb[116] 9.4616e-05
6 *286:13 *646:la_oenb[116] 0
7 *646:la_data_in[116] *286:11 0.00134587
8 *646:la_data_in[117] *286:13 0
9 *158:13 la_data_out[112] 0
*RES
1 *646:la_data_out[112] *286:11 24.6037 
2 *286:11 *286:13 52.8036 
3 *286:13 la_data_out[112] 31.8482 
*END

*D_NET *287 0.0242294
*CONN
*P la_data_out[113] O
*I *646:la_data_out[113] O *D senseedge_top
*CAP
1 la_data_out[113] 0.00201551
2 *646:la_data_out[113] 0.00354936
3 *287:5 0.00556487
4 la_data_out[113] *413:13 0.00448978
5 la_data_out[113] *415:17 0.00551177
6 la_data_out[113] *416:13 0.00164168
7 *154:9 *287:5 0
8 *154:13 *287:5 0.00145646
9 *158:13 la_data_out[113] 0
*RES
1 *646:la_data_out[113] *287:5 85.0625 
2 *287:5 la_data_out[113] 29.9171 
*END

*D_NET *288 0.0259195
*CONN
*P la_data_out[114] O
*I *646:la_data_out[114] O *D senseedge_top
*CAP
1 la_data_out[114] 0.00168792
2 *646:la_data_out[114] 0.00429769
3 *288:5 0.00598561
4 la_data_out[114] la_data_out[118] 0.000321942
5 la_data_out[114] *289:15 0.00611218
6 la_data_out[114] *412:13 0.000530793
7 la_data_out[114] *415:17 0.0063214
8 la_data_out[114] *416:13 7.14639e-05
9 la_data_out[114] *420:13 0.000590514
10 *156:17 *288:5 0
*RES
1 *646:la_data_out[114] *288:5 86.8839 
2 *288:5 la_data_out[114] 21.3979 
*END

*D_NET *289 0.0267015
*CONN
*P la_data_out[115] O
*I *646:la_data_out[115] O *D senseedge_top
*CAP
1 la_data_out[115] 8.34412e-05
2 *646:la_data_out[115] 0.0028273
3 *289:15 0.00327151
4 *289:5 0.00601537
5 *289:15 la_data_out[116] 0.00596585
6 *289:15 *420:13 0.000843677
7 la_data_out[114] *289:15 0.00611218
8 *157:15 *289:5 0.000241988
9 *157:15 *289:15 0.00134022
*RES
1 *646:la_data_out[115] *289:5 58.8125 
2 *289:5 *289:15 48.7765 
3 *289:15 la_data_out[115] 1.70536 
*END

*D_NET *290 0.025454
*CONN
*P la_data_out[116] O
*I *646:la_data_out[116] O *D senseedge_top
*CAP
1 la_data_out[116] 0.00180921
2 *646:la_data_out[116] 0.00441122
3 *290:5 0.00622043
4 la_data_out[116] la_data_out[117] 0.00620725
5 la_data_out[116] *420:13 0.000473155
6 la_data_out[116] *423:13 0.000366919
7 *158:13 *290:5 0
8 *289:15 la_data_out[116] 0.00596585
*RES
1 *646:la_data_out[116] *290:5 88.7054 
2 *290:5 la_data_out[116] 19.9302 
*END

*D_NET *291 0.0217472
*CONN
*P la_data_out[117] O
*I *646:la_data_out[117] O *D senseedge_top
*CAP
1 la_data_out[117] 0.00260856
2 *646:la_data_out[117] 0.00426507
3 *291:5 0.00687363
4 la_data_out[117] *296:11 0.000252815
5 la_data_out[117] *423:13 0.000404831
6 la_data_out[117] *424:15 0.000731089
7 *291:5 *414:9 0
8 la_data_out[116] la_data_out[117] 0.00620725
9 *159:13 *291:5 0.000403985
*RES
1 *646:la_data_out[117] *291:5 89.3125 
2 *291:5 la_data_out[117] 20.485 
*END

*D_NET *292 0.0259192
*CONN
*P la_data_out[118] O
*I *646:la_data_out[118] O *D senseedge_top
*CAP
1 la_data_out[118] 0.00153577
2 *646:la_data_out[118] 0.00424996
3 *292:5 0.00578573
4 la_data_out[118] *416:13 0.000821651
5 la_data_out[118] *420:13 0.00747535
6 la_data_out[118] *421:13 0.00572877
7 la_data_out[114] la_data_out[118] 0.000321942
8 *160:13 *292:5 0
*RES
1 *646:la_data_out[118] *292:5 86.2768 
2 *292:5 la_data_out[118] 22.5756 
*END

*D_NET *293 0.0177661
*CONN
*P la_data_out[119] O
*I *646:la_data_out[119] O *D senseedge_top
*CAP
1 la_data_out[119] 0.00520049
2 *646:la_data_out[119] 0.00368258
3 *293:5 0.00888307
4 *161:9 *293:5 0
5 *165:7 la_data_out[119] 0
6 *167:13 la_data_out[119] 0
*RES
1 *646:la_data_out[119] *293:5 74.7411 
2 *293:5 la_data_out[119] 34.6662 
*END

*D_NET *294 0.0144776
*CONN
*P la_data_out[11] O
*I *646:la_data_out[11] O *D senseedge_top
*CAP
1 la_data_out[11] 4.32496e-05
2 *646:la_data_out[11] 0.00305717
3 *294:17 0.00258031
4 *294:15 0.00559423
5 *294:15 *646:la_oenb[8] 0.000246009
6 *294:15 *422:13 0
7 *294:15 *432:11 0
8 *294:17 *646:la_oenb[8] 0.00295666
9 *646:la_data_in[10] *294:15 0
10 *646:la_data_in[13] *294:15 0
11 *646:la_data_in[9] *294:17 0
*RES
1 *646:la_data_out[11] *294:15 30.0615 
2 *294:15 *294:17 72.5357 
3 *294:17 la_data_out[11] 0.883929 
*END

*D_NET *295 0.0237152
*CONN
*P la_data_out[120] O
*I *646:la_data_out[120] O *D senseedge_top
*CAP
1 la_data_out[120] 0.00287322
2 *646:la_data_out[120] 0.00353852
3 *295:5 0.00641175
4 la_data_out[120] la_data_out[122] 0.000493839
5 la_data_out[120] *421:13 0.00188195
6 la_data_out[120] *423:13 0.00447263
7 la_data_out[120] *424:15 0.00260794
8 *295:5 *417:9 0
9 *295:5 *417:13 0.00143531
10 *167:13 la_data_out[120] 0
*RES
1 *646:la_data_out[120] *295:5 84.4554 
2 *295:5 la_data_out[120] 31.6964 
*END

*D_NET *296 0.0202944
*CONN
*P la_data_out[121] O
*I *646:la_data_out[121] O *D senseedge_top
*CAP
1 la_data_out[121] 0.00196613
2 *646:la_data_out[121] 0.00442585
3 *296:11 0.00400485
4 *296:5 0.00646457
5 la_data_out[121] *424:15 0.0017682
6 *296:5 *418:13 0
7 *296:11 *424:15 0.001412
8 la_data_out[117] *296:11 0.000252815
*RES
1 *646:la_data_out[121] *296:5 89.1607 
2 *296:5 *296:11 43.4554 
3 *296:11 la_data_out[121] 42.1339 
*END

*D_NET *297 0.0216304
*CONN
*P la_data_out[122] O
*I *646:la_data_out[122] O *D senseedge_top
*CAP
1 la_data_out[122] 0.00327187
2 *646:la_data_out[122] 0.00418329
3 *297:5 0.00745516
4 la_data_out[122] la_data_out[125] 0.00194667
5 la_data_out[122] *646:la_oenb[127] 0
6 la_data_out[122] *302:5 7.79552e-05
7 la_data_out[122] *421:13 0.00372917
8 la_data_out[122] *426:13 0.000472443
9 la_data_out[120] la_data_out[122] 0.000493839
10 *167:13 la_data_out[122] 0
11 *172:13 la_data_out[122] 0
*RES
1 *646:la_data_out[122] *297:5 85.0625 
2 *297:5 la_data_out[122] 24.9213 
*END

*D_NET *298 0.0183792
*CONN
*P la_data_out[123] O
*I *646:la_data_out[123] O *D senseedge_top
*CAP
1 la_data_out[123] 0.00574119
2 *646:la_data_out[123] 0.00344843
3 *298:5 0.00918961
4 la_data_out[123] *530:5 0
*RES
1 *646:la_data_out[123] *298:5 68.0625 
2 *298:5 la_data_out[123] 41.3881 
*END

*D_NET *299 0.0186179
*CONN
*P la_data_out[124] O
*I *646:la_data_out[124] O *D senseedge_top
*CAP
1 la_data_out[124] 4.32496e-05
2 *646:la_data_out[124] 0.00641645
3 *299:13 0.00289252
4 *299:11 0.00284927
5 *299:9 0.00641645
6 *299:9 *428:13 0
*RES
1 *646:la_data_out[124] *299:9 48.7836 
2 *299:9 *299:11 3.41 
3 *299:11 *299:13 57.1964 
4 *299:13 la_data_out[124] 0.883929 
*END

*D_NET *300 0.0237604
*CONN
*P la_data_out[125] O
*I *646:la_data_out[125] O *D senseedge_top
*CAP
1 la_data_out[125] 0.00284933
2 *646:la_data_out[125] 0.00425895
3 *300:5 0.00710828
4 la_data_out[125] la_data_out[126] 0.00152537
5 la_data_out[125] *426:13 0.00607183
6 la_data_out[122] la_data_out[125] 0.00194667
7 *172:13 la_data_out[125] 0
*RES
1 *646:la_data_out[125] *300:5 86.2768 
2 *300:5 la_data_out[125] 23.8728 
*END

*D_NET *301 0.0265551
*CONN
*P la_data_out[126] O
*I *646:la_data_out[126] O *D senseedge_top
*CAP
1 la_data_out[126] 0.00222798
2 *646:la_data_out[126] 0.0043455
3 *301:5 0.00657348
4 la_data_out[126] la_data_out[127] 0.00724151
5 la_data_out[126] *424:15 0.000221763
6 la_data_out[126] *426:13 0.00441949
7 la_data_out[125] la_data_out[126] 0.00152537
8 *168:11 *301:5 0
*RES
1 *646:la_data_out[126] *301:5 87.4911 
2 *301:5 la_data_out[126] 23.2134 
*END

*D_NET *302 0.0290072
*CONN
*P la_data_out[127] O
*I *646:la_data_out[127] O *D senseedge_top
*CAP
1 la_data_out[127] 0.00222732
2 *646:la_data_out[127] 0.00435423
3 *302:5 0.00658155
4 la_data_out[127] *430:11 0.00852463
5 la_data_out[122] *302:5 7.79552e-05
6 la_data_out[126] la_data_out[127] 0.00724151
7 *169:9 *302:5 0
8 *169:11 *302:5 0
*RES
1 *646:la_data_out[127] *302:5 88.0982 
2 *302:5 la_data_out[127] 22.2867 
*END

*D_NET *303 0.0133573
*CONN
*P la_data_out[12] O
*I *646:la_data_out[12] O *D senseedge_top
*CAP
1 la_data_out[12] 0.0036147
2 *646:la_data_out[12] 0.00306393
3 *303:5 0.00667864
4 la_data_out[12] *431:9 0
5 *303:5 *433:9 0
6 *303:5 *433:11 0
7 la_data_out[10] la_data_out[12] 0
8 *178:7 *303:5 0
*RES
1 *646:la_data_out[12] *303:5 61.9911 
2 *303:5 la_data_out[12] 41.2905 
*END

*D_NET *304 0.0134993
*CONN
*P la_data_out[13] O
*I *646:la_data_out[13] O *D senseedge_top
*CAP
1 la_data_out[13] 4.32496e-05
2 *646:la_data_out[13] 0.0035762
3 *304:13 0.00317345
4 *304:11 0.0067064
5 *646:la_data_in[11] *304:13 0
*RES
1 *646:la_data_out[13] *304:11 38.5246 
2 *304:11 *304:13 63.875 
3 *304:13 la_data_out[13] 0.883929 
*END

*D_NET *305 0.0139888
*CONN
*P la_data_out[14] O
*I *646:la_data_out[14] O *D senseedge_top
*CAP
1 la_data_out[14] 4.32496e-05
2 *646:la_data_out[14] 0.00275973
3 *305:17 0.00279906
4 *305:15 0.00551554
5 *305:15 *646:la_oenb[14] 0
6 *305:17 *433:9 0
7 *646:la_data_in[12] *305:15 0
8 *646:la_data_in[12] *305:17 0.00186655
9 *646:la_data_in[13] *305:15 0.000617988
10 *646:la_data_in[16] *305:15 0.000386695
*RES
1 *646:la_data_out[14] *305:15 30.0399 
2 *305:15 *305:17 73.1429 
3 *305:17 la_data_out[14] 0.883929 
*END

*D_NET *306 0.0147481
*CONN
*P la_data_out[15] O
*I *646:la_data_out[15] O *D senseedge_top
*CAP
1 la_data_out[15] 0.0015409
2 *646:la_data_out[15] 0.00160214
3 *306:13 0.00431525
4 *306:11 0.00437649
5 *306:11 *646:la_oenb[13] 0.00121105
6 *306:11 *646:la_oenb[14] 0.000937794
7 *306:11 *308:11 0.00044982
8 *646:la_data_in[13] *306:13 0.000314659
*RES
1 *646:la_data_out[15] *306:11 13.7344 
2 *306:11 *306:13 58.2679 
3 *306:13 la_data_out[15] 31.8482 
*END

*D_NET *307 0.0154868
*CONN
*P la_data_out[16] O
*I *646:la_data_out[16] O *D senseedge_top
*CAP
1 la_data_out[16] 4.32496e-05
2 *646:la_data_out[16] 0.00223706
3 *307:17 0.00360075
4 *307:15 0.00579456
5 *307:15 *646:la_oenb[16] 0.00321685
6 *307:15 *309:13 0
7 *307:15 *437:11 0
8 *646:la_data_in[14] *307:15 0.00030488
9 *646:la_data_in[16] *307:15 0.000289486
10 *646:la_data_in[17] *307:15 0
*RES
1 *646:la_data_out[16] *307:15 29.1967 
2 *307:15 *307:17 73.1429 
3 *307:17 la_data_out[16] 0.883929 
*END

*D_NET *308 0.0134298
*CONN
*P la_data_out[17] O
*I *646:la_data_out[17] O *D senseedge_top
*CAP
1 la_data_out[17] 0.00154722
2 *646:la_data_out[17] 0.00174657
3 *308:13 0.00414083
4 *308:11 0.00434018
5 *308:11 *646:la_oenb[15] 0.000177122
6 *646:la_data_in[15] *308:13 0.000541624
7 *646:la_data_in[18] *308:11 0.000480865
8 *180:9 la_data_out[17] 0
9 *180:13 la_data_out[17] 5.54817e-06
10 *180:13 *308:13 0
11 *306:11 *308:11 0.00044982
*RES
1 *646:la_data_out[17] *308:11 13.9812 
2 *308:11 *308:13 57.6607 
3 *308:13 la_data_out[17] 31.8482 
*END

*D_NET *309 0.0170181
*CONN
*P la_data_out[18] O
*I *646:la_data_out[18] O *D senseedge_top
*CAP
1 la_data_out[18] 0.00154107
2 *646:la_data_out[18] 0.00110476
3 *309:13 0.00409743
4 *309:11 0.00366112
5 *309:11 *646:la_oenb[16] 0.000191998
6 *309:11 *646:la_oenb[17] 0.00250943
7 *309:11 *646:la_oenb[18] 0.00298475
8 *309:11 *312:13 0.000187837
9 *646:la_data_in[16] *309:13 0
10 *646:la_data_in[18] *309:11 9.20325e-05
11 *646:la_data_in[20] *309:11 0.000647728
12 *307:15 *309:13 0
*RES
1 *646:la_data_out[18] *309:11 19.3013 
2 *309:11 *309:13 52.1964 
3 *309:13 la_data_out[18] 31.8482 
*END

*D_NET *310 0.0170755
*CONN
*P la_data_out[19] O
*I *646:la_data_out[19] O *D senseedge_top
*CAP
1 la_data_out[19] 0.00156631
2 *646:la_data_out[19] 0.00115842
3 *310:13 0.00402198
4 *310:11 0.00361409
5 *310:11 *646:la_oenb[18] 0.000313958
6 *310:11 *646:la_oenb[19] 0.00284681
7 *310:11 *313:15 0.000636035
8 *646:la_data_in[17] *310:13 0
9 *646:la_data_in[19] *310:11 0.00291792
*RES
1 *646:la_data_out[19] *310:11 20.9066 
2 *310:11 *310:13 50.375 
3 *310:13 la_data_out[19] 31.8482 
*END

*D_NET *311 0.0144687
*CONN
*P la_data_out[1] O
*I *646:la_data_out[1] O *D senseedge_top
*CAP
1 la_data_out[1] 0.00442246
2 *646:la_data_out[1] 0.0027359
3 *311:5 0.00715836
4 la_data_out[1] la_data_out[4] 0.000121515
5 la_data_out[1] *646:wbs_adr_i[30] 3.04937e-05
6 la_data_out[1] *632:13 0
7 *311:5 *472:11 0
*RES
1 *646:la_data_out[1] *311:5 55.3125 
2 *311:5 la_data_out[1] 49.9869 
*END

*D_NET *312 0.0148631
*CONN
*P la_data_out[20] O
*I *646:la_data_out[20] O *D senseedge_top
*CAP
1 la_data_out[20] 0.00154107
2 *646:la_data_out[20] 0.00136564
3 *312:13 0.00426558
4 *312:11 0.00409015
5 *312:11 *646:la_oenb[21] 0.00102755
6 *312:11 *313:15 0.000227223
7 *646:la_data_in[18] *312:13 0
8 *646:la_data_in[20] *312:11 0
9 *646:la_data_in[21] *312:11 0.00215808
10 *309:11 *312:13 0.000187837
*RES
1 *646:la_data_out[20] *312:11 14.691 
2 *312:11 *312:13 56.4464 
3 *312:13 la_data_out[20] 31.8482 
*END

*D_NET *313 0.0135371
*CONN
*P la_data_out[21] O
*I *646:la_data_out[21] O *D senseedge_top
*CAP
1 la_data_out[21] 4.32496e-05
2 *646:la_data_out[21] 0.00191426
3 *313:17 0.00358449
4 *313:15 0.0054555
5 *313:15 *646:la_oenb[21] 0.00132035
6 *313:17 *441:9 0
7 *646:la_data_in[23] *313:15 0.000356018
8 *310:11 *313:15 0.000636035
9 *312:11 *313:15 0.000227223
*RES
1 *646:la_data_out[21] *313:15 28.7427 
2 *313:15 *313:17 73.1429 
3 *313:17 la_data_out[21] 0.883929 
*END

*D_NET *314 0.0140205
*CONN
*P la_data_out[22] O
*I *646:la_data_out[22] O *D senseedge_top
*CAP
1 la_data_out[22] 0.0015409
2 *646:la_data_out[22] 0.00155961
3 *314:13 0.00399361
4 *314:11 0.00401232
5 *314:11 *646:la_oenb[20] 0.000129668
6 *314:11 *316:14 0
7 *646:la_data_in[22] *314:11 0.00257667
8 *646:la_data_in[24] *314:11 0.000207703
*RES
1 *646:la_data_out[22] *314:11 20.33 
2 *314:11 *314:13 50.375 
3 *314:13 la_data_out[22] 31.8482 
*END

*D_NET *315 0.0135663
*CONN
*P la_data_out[23] O
*I *646:la_data_out[23] O *D senseedge_top
*CAP
1 la_data_out[23] 0.0015409
2 *646:la_data_out[23] 0.00120933
3 *315:13 0.00426393
4 *315:11 0.00393236
5 *315:11 *646:la_oenb[22] 0.00198362
6 *315:11 *646:la_oenb[24] 0.000321942
7 *646:la_data_in[23] *315:11 0.000168615
8 *646:la_data_in[25] *315:11 0.000118634
9 *189:11 *315:11 2.69575e-05
*RES
1 *646:la_data_out[23] *315:11 14.7216 
2 *315:11 *315:13 55.8393 
3 *315:13 la_data_out[23] 31.8482 
*END

*D_NET *316 0.0137255
*CONN
*P la_data_out[24] O
*I *646:la_data_out[24] O *D senseedge_top
*CAP
1 la_data_out[24] 0.0015409
2 *646:la_data_out[24] 0.000733067
3 *316:14 0.00437578
4 *316:12 0.00356795
5 *316:12 *646:la_oenb[23] 0.00183706
6 *316:12 *646:la_oenb[24] 0.000649439
7 *316:12 *646:la_oenb[25] 0.000529689
8 *316:14 *646:la_oenb[22] 5.04362e-05
9 *646:la_data_in[23] *316:12 0.000441164
10 *314:11 *316:14 0
*RES
1 *646:la_data_out[24] *316:12 11.6077 
2 *316:12 *316:14 58.2679 
3 *316:14 la_data_out[24] 31.8482 
*END

*D_NET *317 0.0146416
*CONN
*P la_data_out[25] O
*I *646:la_data_out[25] O *D senseedge_top
*CAP
1 la_data_out[25] 0.0015409
2 *646:la_data_out[25] 0.000708092
3 *317:13 0.00429278
4 *317:11 0.00345997
5 *317:11 *646:la_oenb[24] 0.00171663
6 *317:11 *646:la_oenb[26] 0.00044982
7 *646:la_data_in[25] *317:11 0.00178112
8 *646:la_data_in[26] *317:11 0.000638007
9 *191:11 *317:11 5.42534e-05
*RES
1 *646:la_data_out[25] *317:11 13.7541 
2 *317:11 *317:13 56.4464 
3 *317:13 la_data_out[25] 31.8482 
*END

*D_NET *318 0.0137748
*CONN
*P la_data_out[26] O
*I *646:la_data_out[26] O *D senseedge_top
*CAP
1 la_data_out[26] 0.00156631
2 *646:la_data_out[26] 0.00115513
3 *318:18 0.00439901
4 *318:16 0.00398783
5 *318:16 *646:la_oenb[25] 0.00176176
6 *318:18 *646:la_oenb[24] 4.93125e-05
7 *646:la_data_in[25] *318:16 7.1588e-05
8 *646:la_data_in[26] *318:16 0.000135256
9 *646:la_data_in[27] *318:16 0.000648616
*RES
1 *646:la_data_out[26] *318:16 18.6408 
2 *318:16 *318:18 58.2679 
3 *318:18 la_data_out[26] 31.8482 
*END

*D_NET *319 0.0140615
*CONN
*P la_data_out[27] O
*I *646:la_data_out[27] O *D senseedge_top
*CAP
1 la_data_out[27] 0.0015409
2 *646:la_data_out[27] 0.000558728
3 *319:13 0.00431349
4 *319:11 0.00333132
5 *319:11 *646:la_oenb[26] 0.00153503
6 *319:11 *646:la_oenb[27] 3.5867e-05
7 *319:11 *646:la_oenb[28] 0.000215317
8 *319:11 *320:16 0.000349165
9 *646:la_data_in[26] *319:11 0.000402919
10 *646:la_data_in[27] *319:11 0.000380079
11 *646:la_data_in[28] *319:11 0.00139865
*RES
1 *646:la_data_out[27] *319:11 12.7867 
2 *319:11 *319:13 57.0536 
3 *319:13 la_data_out[27] 31.8482 
*END

*D_NET *320 0.012669
*CONN
*P la_data_out[28] O
*I *646:la_data_out[28] O *D senseedge_top
*CAP
1 la_data_out[28] 4.32496e-05
2 *646:la_data_out[28] 0.00172524
3 *320:18 0.00358449
4 *320:16 0.00526649
5 *320:16 *646:la_oenb[26] 0
6 *320:16 *646:la_oenb[28] 0.00131667
7 *320:16 *646:la_oenb[29] 0.000121515
8 *320:18 *448:9 0
9 *646:la_data_in[27] *320:16 0.000262217
10 *319:11 *320:16 0.000349165
*RES
1 *646:la_data_out[28] *320:16 26.9764 
2 *320:16 *320:18 73.1429 
3 *320:18 la_data_out[28] 0.883929 
*END

*D_NET *321 0.0125575
*CONN
*P la_data_out[29] O
*I *646:la_data_out[29] O *D senseedge_top
*CAP
1 la_data_out[29] 0.0015409
2 *646:la_data_out[29] 0.00093246
3 *321:21 0.00424594
4 *321:19 0.00363749
5 *321:19 *646:la_oenb[29] 0.000386157
6 *321:19 *646:la_oenb[30] 5.7986e-05
7 *646:la_data_in[28] *321:19 0.000168416
8 *646:la_data_in[29] *321:19 0.000748808
9 *646:la_data_in[30] *321:19 0.000839344
*RES
1 *646:la_data_out[29] *321:19 20.6326 
2 *321:19 *321:21 55.8393 
3 *321:21 la_data_out[29] 31.8482 
*END

*D_NET *322 0.0149882
*CONN
*P la_data_out[2] O
*I *646:la_data_out[2] O *D senseedge_top
*CAP
1 la_data_out[2] 4.32496e-05
2 *646:la_data_out[2] 0.00421772
3 *322:13 0.0032131
4 *322:11 0.00738757
5 *322:11 *646:wbs_adr_i[31] 7.06369e-05
6 *322:13 *646:wbs_adr_i[31] 5.59239e-05
7 *194:13 *322:13 0
*RES
1 *646:la_data_out[2] *322:11 39.9353 
2 *322:11 *322:13 64.4821 
3 *322:13 la_data_out[2] 0.883929 
*END

*D_NET *323 0.0121681
*CONN
*P la_data_out[30] O
*I *646:la_data_out[30] O *D senseedge_top
*CAP
1 la_data_out[30] 4.32496e-05
2 *646:la_data_out[30] 0.000969306
3 *323:13 0.00417011
4 *323:11 0.00509617
5 *323:11 *324:11 0.000245187
6 *323:11 *324:13 0
7 *323:11 *452:11 2.04095e-05
8 *646:la_data_in[30] *323:11 0.00159416
9 *646:la_data_in[31] *323:11 2.94999e-05
*RES
1 *646:la_data_out[30] *323:11 13.2803 
2 *323:11 *323:13 85.125 
3 *323:13 la_data_out[30] 0.883929 
*END

*D_NET *324 0.0136178
*CONN
*P la_data_out[31] O
*I *646:la_data_out[31] O *D senseedge_top
*CAP
1 la_data_out[31] 0.00159526
2 *646:la_data_out[31] 0.000532404
3 *324:13 0.00445868
4 *324:11 0.00339582
5 *324:11 *646:la_oenb[31] 0.00153555
6 *646:la_data_in[30] *324:13 1.85104e-05
7 *646:la_data_in[31] *324:11 0.00155561
8 *646:la_data_in[32] *324:11 0.000280718
9 *323:11 *324:11 0.000245187
10 *323:11 *324:13 0
*RES
1 *646:la_data_out[31] *324:11 11.9939 
2 *324:11 *324:13 57.0536 
3 *324:13 la_data_out[31] 31.8482 
*END

*D_NET *325 0.0121586
*CONN
*P la_data_out[32] O
*I *646:la_data_out[32] O *D senseedge_top
*CAP
1 la_data_out[32] 0.00159526
2 *646:la_data_out[32] 0.00086303
3 *325:13 0.00439854
4 *325:11 0.0036663
5 *325:11 *646:la_oenb[31] 0.000901848
6 *325:11 *646:la_oenb[32] 0.000521146
7 *325:11 *326:11 0.000212435
*RES
1 *646:la_data_out[32] *325:11 13.0641 
2 *325:11 *325:13 55.8393 
3 *325:13 la_data_out[32] 31.8482 
*END

*D_NET *326 0.0127411
*CONN
*P la_data_out[33] O
*I *646:la_data_out[33] O *D senseedge_top
*CAP
1 la_data_out[33] 0.0015409
2 *646:la_data_out[33] 0.000424525
3 *326:13 0.00428378
4 *326:11 0.00316741
5 *326:11 *646:la_oenb[32] 0.000774644
6 *326:11 *646:la_oenb[33] 0.00133397
7 *326:11 *327:13 4.93125e-05
8 *646:la_data_in[33] *326:11 0.000226427
9 *646:la_data_in[34] *326:11 0.000727744
10 *198:7 la_data_out[33] 0
11 *325:11 *326:11 0.000212435
*RES
1 *646:la_data_out[33] *326:11 12.2407 
2 *326:11 *326:13 56.4464 
3 *326:13 la_data_out[33] 31.8482 
*END

*D_NET *327 0.0115677
*CONN
*P la_data_out[34] O
*I *646:la_data_out[34] O *D senseedge_top
*CAP
1 la_data_out[34] 0.0015409
2 *646:la_data_out[34] 0.000605305
3 *327:13 0.00434145
4 *327:11 0.00340586
5 *327:11 *646:la_oenb[34] 0.000326674
6 *327:11 *328:15 5.7986e-05
7 *646:la_data_in[34] *327:11 0.00124017
8 *326:11 *327:13 4.93125e-05
*RES
1 *646:la_data_out[34] *327:11 10.8823 
2 *327:11 *327:13 57.6607 
3 *327:13 la_data_out[34] 31.8482 
*END

*D_NET *328 0.0109643
*CONN
*P la_data_out[35] O
*I *646:la_data_out[35] O *D senseedge_top
*CAP
1 la_data_out[35] 4.32496e-05
2 *646:la_data_out[35] 0.00147399
3 *328:17 0.00358449
4 *328:15 0.00501523
5 *328:15 *646:la_oenb[34] 0.000207664
6 *328:15 *646:la_oenb[35] 0.000564006
7 *328:17 *456:9 0
8 *646:la_data_in[35] *328:15 1.76735e-05
9 *327:11 *328:15 5.7986e-05
*RES
1 *646:la_data_out[35] *328:15 26.1483 
2 *328:15 *328:17 73.1429 
3 *328:17 la_data_out[35] 0.883929 
*END

*D_NET *329 0.0113243
*CONN
*P la_data_out[36] O
*I *646:la_data_out[36] O *D senseedge_top
*CAP
1 la_data_out[36] 0.0015409
2 *646:la_data_out[36] 0.000702798
3 *329:13 0.00424594
4 *329:11 0.00340783
5 *329:11 *646:la_oenb[36] 7.804e-05
6 *329:11 *330:13 0
7 *646:la_data_in[36] *329:11 0.00100915
8 *646:la_data_in[37] *329:11 0.000339633
*RES
1 *646:la_data_out[36] *329:11 12.3434 
2 *329:11 *329:13 55.8393 
3 *329:13 la_data_out[36] 31.8482 
*END

*D_NET *330 0.0111031
*CONN
*P la_data_out[37] O
*I *646:la_data_out[37] O *D senseedge_top
*CAP
1 la_data_out[37] 0.00159269
2 *646:la_data_out[37] 0.000534081
3 *330:13 0.0043656
4 *330:11 0.00330699
5 *330:11 *646:la_oenb[36] 0.000309118
6 *646:la_data_in[37] *330:11 0.000871926
7 *646:la_data_in[38] *330:11 0.000122739
8 *329:11 *330:13 0
*RES
1 *646:la_data_out[37] *330:11 10.9129 
2 *330:11 *330:13 57.0536 
3 *330:13 la_data_out[37] 31.8482 
*END

*D_NET *331 0.0111202
*CONN
*P la_data_out[38] O
*I *646:la_data_out[38] O *D senseedge_top
*CAP
1 la_data_out[38] 0.0015951
2 *646:la_data_out[38] 0.000557641
3 *331:13 0.00447404
4 *331:11 0.00343658
5 *331:11 *646:la_oenb[38] 0.000727744
6 *331:13 *646:la_oenb[37] 0
7 *646:la_data_in[38] *331:11 0.000329062
*RES
1 *646:la_data_out[38] *331:11 10.7688 
2 *331:11 *331:13 57.0536 
3 *331:13 la_data_out[38] 31.8482 
*END

*D_NET *332 0.0105433
*CONN
*P la_data_out[39] O
*I *646:la_data_out[39] O *D senseedge_top
*CAP
1 la_data_out[39] 0.00159526
2 *646:la_data_out[39] 0.000933216
3 *332:13 0.00418533
4 *332:11 0.00352328
5 *332:11 *646:la_oenb[39] 0.00030621
6 *646:la_data_in[39] *332:11 0
*RES
1 *646:la_data_out[39] *332:11 16.0169 
2 *332:11 *332:13 51.5893 
3 *332:13 la_data_out[39] 31.8482 
*END

*D_NET *333 0.0144594
*CONN
*P la_data_out[3] O
*I *646:la_data_out[3] O *D senseedge_top
*CAP
1 la_data_out[3] 0.00302205
2 *646:la_data_out[3] 0.00322226
3 *333:5 0.00624432
4 la_data_out[3] *439:15 0
5 la_data_out[3] *483:13 0.000220432
6 *333:5 *366:13 0.00175034
7 *183:13 la_data_out[3] 0
*RES
1 *646:la_data_out[3] *333:5 80.8125 
2 *333:5 la_data_out[3] 23.788 
*END

*D_NET *334 0.0108249
*CONN
*P la_data_out[40] O
*I *646:la_data_out[40] O *D senseedge_top
*CAP
1 la_data_out[40] 0.00156985
2 *646:la_data_out[40] 0.000647252
3 *334:13 0.00427004
4 *334:11 0.00334744
5 *334:11 *646:la_oenb[40] 0.00049672
6 *334:13 *646:la_oenb[39] 0.000493587
7 *646:la_data_in[40] *334:11 0
8 *206:7 la_data_out[40] 0
9 *206:7 *334:13 0
*RES
1 *646:la_data_out[40] *334:11 11.0156 
2 *334:11 *334:13 56.4464 
3 *334:13 la_data_out[40] 31.8482 
*END

*D_NET *335 0.0105961
*CONN
*P la_data_out[41] O
*I *646:la_data_out[41] O *D senseedge_top
*CAP
1 la_data_out[41] 0.00154347
2 *646:la_data_out[41] 0.000834408
3 *335:13 0.00410298
4 *335:11 0.00339392
5 *335:11 *646:la_oenb[41] 0.000344962
6 *646:la_data_in[41] *335:11 0.000376401
*RES
1 *646:la_data_out[41] *335:11 16.2637 
2 *335:11 *335:13 50.9821 
3 *335:13 la_data_out[41] 31.8482 
*END

*D_NET *336 0.0103347
*CONN
*P la_data_out[42] O
*I *646:la_data_out[42] O *D senseedge_top
*CAP
1 la_data_out[42] 4.43439e-05
2 *646:la_data_out[42] 0.00126876
3 *336:17 0.00371123
4 *336:15 0.00493565
5 *336:15 *646:la_oenb[42] 0.000256033
6 *646:la_data_in[42] *336:15 0.000118684
7 *209:11 *336:15 0
*RES
1 *646:la_data_out[42] *336:15 24.8511 
2 *336:15 *336:17 73.1429 
3 *336:17 la_data_out[42] 0.883929 
*END

*D_NET *337 0.00978846
*CONN
*P la_data_out[43] O
*I *646:la_data_out[43] O *D senseedge_top
*CAP
1 la_data_out[43] 0.0015409
2 *646:la_data_out[43] 0.000726939
3 *337:13 0.00401345
4 *337:11 0.00319949
5 *337:11 *646:la_oenb[43] 0.000116197
6 *337:11 *465:11 2.69575e-05
7 *337:13 *646:la_oenb[42] 0
8 *646:la_data_in[43] *337:11 0.000164527
*RES
1 *646:la_data_out[43] *337:11 15.9034 
2 *337:11 *337:13 50.9821 
3 *337:13 la_data_out[43] 31.8482 
*END

*D_NET *338 0.00903292
*CONN
*P la_data_out[44] O
*I *646:la_data_out[44] O *D senseedge_top
*CAP
1 la_data_out[44] 0.00166995
2 *646:la_data_out[44] 0.00284651
3 *338:5 0.00451646
*RES
1 *646:la_data_out[44] *338:5 58.8125 
2 *338:5 la_data_out[44] 34.5268 
*END

*D_NET *339 0.00931925
*CONN
*P la_data_out[45] O
*I *646:la_data_out[45] O *D senseedge_top
*CAP
1 la_data_out[45] 0.0015409
2 *646:la_data_out[45] 0.000687357
3 *339:13 0.00395382
4 *339:11 0.00310027
5 *339:11 *467:11 3.69008e-05
6 *211:7 la_data_out[45] 0
*RES
1 *646:la_data_out[45] *339:11 16.7573 
2 *339:11 *339:13 49.7679 
3 *339:13 la_data_out[45] 31.8482 
*END

*D_NET *340 0.00883741
*CONN
*P la_data_out[46] O
*I *646:la_data_out[46] O *D senseedge_top
*CAP
1 la_data_out[46] 0.00157297
2 *646:la_data_out[46] 0.00284573
3 *340:5 0.00441871
*RES
1 *646:la_data_out[46] *340:5 58.8125 
2 *340:5 la_data_out[46] 32.4732 
*END

*D_NET *341 0.0091735
*CONN
*P la_data_out[47] O
*I *646:la_data_out[47] O *D senseedge_top
*CAP
1 la_data_out[47] 0.00157023
2 *646:la_data_out[47] 0.000506819
3 *341:9 0.00407993
4 *341:7 0.00301652
5 *646:la_data_in[47] *341:9 0
6 *213:9 la_data_out[47] 0
*RES
1 *646:la_data_out[47] *341:7 10.1339 
2 *341:7 *341:9 50.9821 
3 *341:9 la_data_out[47] 31.8482 
*END

*D_NET *342 0.0089279
*CONN
*P la_data_out[48] O
*I *646:la_data_out[48] O *D senseedge_top
*CAP
1 la_data_out[48] 4.43439e-05
2 *646:la_data_out[48] 0.00441961
3 *342:5 0.00446395
*RES
1 *646:la_data_out[48] *342:5 88.0982 
2 *342:5 la_data_out[48] 0.883929 
*END

*D_NET *343 0.00877301
*CONN
*P la_data_out[49] O
*I *646:la_data_out[49] O *D senseedge_top
*CAP
1 la_data_out[49] 0.0015409
2 *646:la_data_out[49] 0.0028456
3 *343:5 0.0043865
*RES
1 *646:la_data_out[49] *343:5 58.8125 
2 *343:5 la_data_out[49] 31.8482 
*END

*D_NET *344 0.0142857
*CONN
*P la_data_out[4] O
*I *646:la_data_out[4] O *D senseedge_top
*CAP
1 la_data_out[4] 0.00431647
2 *646:la_data_out[4] 0.00276562
3 *344:5 0.00708209
4 la_data_out[4] *472:9 0
5 la_data_out[4] *472:11 0
6 *344:5 la_data_out[7] 0
7 *344:5 *483:15 0
8 *344:5 *494:13 0
9 la_data_out[1] la_data_out[4] 0.000121515
10 *646:la_data_in[1] la_data_out[4] 0
*RES
1 *646:la_data_out[4] *344:5 55.9196 
2 *344:5 la_data_out[4] 48.8033 
*END

*D_NET *345 0.00866155
*CONN
*P la_data_out[50] O
*I *646:la_data_out[50] O *D senseedge_top
*CAP
1 la_data_out[50] 6.33454e-05
2 *646:la_data_out[50] 0.00426743
3 *345:5 0.00433077
*RES
1 *646:la_data_out[50] *345:5 88.0982 
2 *345:5 la_data_out[50] 1.29464 
*END

*D_NET *346 0.00879527
*CONN
*P la_data_out[51] O
*I *646:la_data_out[51] O *D senseedge_top
*CAP
1 la_data_out[51] 0.00155113
2 *646:la_data_out[51] 0.00284651
3 *346:5 0.00439763
4 la_data_out[51] *474:7 0
*RES
1 *646:la_data_out[51] *346:5 58.8125 
2 *346:5 la_data_out[51] 32.0625 
*END

*D_NET *347 0.00888085
*CONN
*P la_data_out[52] O
*I *646:la_data_out[52] O *D senseedge_top
*CAP
1 la_data_out[52] 8.34412e-05
2 *646:la_data_out[52] 0.000845447
3 *347:9 0.00359498
4 *347:7 0.00435699
5 *347:9 *646:la_oenb[52] 0
6 *219:7 *347:7 0
*RES
1 *646:la_data_out[52] *347:7 17.4554 
2 *347:7 *347:9 72.5357 
3 *347:9 la_data_out[52] 1.70536 
*END

*D_NET *348 0.00909048
*CONN
*P la_data_out[53] O
*I *646:la_data_out[53] O *D senseedge_top
*CAP
1 la_data_out[53] 0.000482807
2 *646:la_data_out[53] 0.00406243
3 *348:5 0.00454524
4 *220:13 *348:5 0
*RES
1 *646:la_data_out[53] *348:5 83.8482 
2 *348:5 la_data_out[53] 13.4518 
*END

*D_NET *349 0.0100394
*CONN
*P la_data_out[54] O
*I *646:la_data_out[54] O *D senseedge_top
*CAP
1 la_data_out[54] 0.00100577
2 *646:la_data_out[54] 0.00267518
3 *349:5 0.00368095
4 *221:7 *349:5 0.00267752
*RES
1 *646:la_data_out[54] *349:5 74.1339 
2 *349:5 la_data_out[54] 23.3102 
*END

*D_NET *350 0.0102575
*CONN
*P la_data_out[55] O
*I *646:la_data_out[55] O *D senseedge_top
*CAP
1 la_data_out[55] 0.000534021
2 *646:la_data_out[55] 0.00374816
3 *350:5 0.00428218
4 *222:13 *350:5 0.00169312
*RES
1 *646:la_data_out[55] *350:5 85.0625 
2 *350:5 la_data_out[55] 12.2592 
*END

*D_NET *351 0.00948793
*CONN
*P la_data_out[56] O
*I *646:la_data_out[56] O *D senseedge_top
*CAP
1 la_data_out[56] 0.00135345
2 *646:la_data_out[56] 0.00312238
3 *351:5 0.00447583
4 la_data_out[56] *646:la_oenb[56] 0.000536274
5 *646:la_data_in[57] la_data_out[56] 0
6 *223:13 la_data_out[56] 0
*RES
1 *646:la_data_out[56] *351:5 64.4196 
2 *351:5 la_data_out[56] 33.0462 
*END

*D_NET *352 0.00964231
*CONN
*P la_data_out[57] O
*I *646:la_data_out[57] O *D senseedge_top
*CAP
1 la_data_out[57] 0.000540697
2 *646:la_data_out[57] 0.00428046
3 *352:5 0.00482116
4 *352:5 *479:13 0
5 *224:13 *352:5 0
*RES
1 *646:la_data_out[57] *352:5 88.0982 
2 *352:5 la_data_out[57] 9.79749 
*END

*D_NET *353 0.0103557
*CONN
*P la_data_out[58] O
*I *646:la_data_out[58] O *D senseedge_top
*CAP
1 la_data_out[58] 0.00186313
2 *646:la_data_out[58] 0.00252623
3 *353:11 0.00438936
4 la_data_out[58] *646:la_oenb[58] 0
5 *646:la_data_in[59] la_data_out[58] 0.001577
*RES
1 *646:la_data_out[58] *353:11 49.1935 
2 *353:11 la_data_out[58] 49.6339 
*END

*D_NET *354 0.0117619
*CONN
*P la_data_out[59] O
*I *646:la_data_out[59] O *D senseedge_top
*CAP
1 la_data_out[59] 0.000604778
2 *646:la_data_out[59] 0.00233572
3 *354:15 0.0020564
4 *354:11 0.00378734
5 *354:15 *482:13 0
6 *646:la_data_in[60] *354:15 0.00297769
*RES
1 *646:la_data_out[59] *354:11 43.3383 
2 *354:11 *354:15 43.2857 
3 *354:15 la_data_out[59] 12.4196 
*END

*D_NET *355 0.0148623
*CONN
*P la_data_out[5] O
*I *646:la_data_out[5] O *D senseedge_top
*CAP
1 la_data_out[5] 4.32496e-05
2 *646:la_data_out[5] 0.00407825
3 *355:13 0.00280494
4 *355:11 0.00683995
5 *227:7 *355:13 0
6 *249:15 *355:11 0.00109589
*RES
1 *646:la_data_out[5] *355:11 46.7165 
2 *355:11 *355:13 56.5893 
3 *355:13 la_data_out[5] 0.883929 
*END

*D_NET *356 0.0108312
*CONN
*P la_data_out[60] O
*I *646:la_data_out[60] O *D senseedge_top
*CAP
1 la_data_out[60] 0.00096392
2 *646:la_data_out[60] 0.00398444
3 *356:5 0.00494836
4 *356:5 *482:13 0.000934534
*RES
1 *646:la_data_out[60] *356:5 83.2411 
2 *356:5 la_data_out[60] 15.3562 
*END

*D_NET *357 0.0102525
*CONN
*P la_data_out[61] O
*I *646:la_data_out[61] O *D senseedge_top
*CAP
1 la_data_out[61] 0.00134265
2 *646:la_data_out[61] 0.00378358
3 *357:5 0.00512623
4 *357:5 *484:9 0
5 *357:5 *484:15 0
6 *230:13 la_data_out[61] 0
*RES
1 *646:la_data_out[61] *357:5 77.7768 
2 *357:5 la_data_out[61] 20.9646 
*END

*D_NET *358 0.0103953
*CONN
*P la_data_out[62] O
*I *646:la_data_out[62] O *D senseedge_top
*CAP
1 la_data_out[62] 0.00192674
2 *646:la_data_out[62] 0.00327092
3 *358:5 0.00519766
4 la_data_out[62] *485:13 0
5 *646:la_data_in[63] la_data_out[62] 0
6 *230:13 la_data_out[62] 0
7 *231:13 la_data_out[62] 0
*RES
1 *646:la_data_out[62] *358:5 67.4554 
2 *358:5 la_data_out[62] 31.1636 
*END

*D_NET *359 0.0141164
*CONN
*P la_data_out[63] O
*I *646:la_data_out[63] O *D senseedge_top
*CAP
1 la_data_out[63] 0.000149285
2 *646:la_data_out[63] 0.00145721
3 *359:13 0.0025796
4 *359:11 0.00388753
5 *359:13 *360:9 0.00604279
6 *359:13 *487:13 0
7 *231:13 la_data_out[63] 0
8 *231:13 *359:13 0
*RES
1 *646:la_data_out[63] *359:11 19.1661 
2 *359:11 *359:13 77.2321 
3 *359:13 la_data_out[63] 3.36607 
*END

*D_NET *360 0.0142752
*CONN
*P la_data_out[64] O
*I *646:la_data_out[64] O *D senseedge_top
*CAP
1 la_data_out[64] 0.00100656
2 *646:la_data_out[64] 0.000426987
3 *360:9 0.00337911
4 *360:7 0.00279953
5 la_data_out[64] *361:5 0.000306919
6 *646:la_data_in[64] *360:9 0
7 *231:13 *360:9 0
8 *233:13 la_data_out[64] 0.000313288
9 *359:13 *360:9 0.00604279
*RES
1 *646:la_data_out[64] *360:7 8.90179 
2 *360:7 *360:9 76.0179 
3 *360:9 la_data_out[64] 15.6138 
*END

*D_NET *361 0.01123
*CONN
*P la_data_out[65] O
*I *646:la_data_out[65] O *D senseedge_top
*CAP
1 la_data_out[65] 0.00127141
2 *646:la_data_out[65] 0.00419015
3 *361:5 0.00546156
4 la_data_out[64] *361:5 0.000306919
5 *233:13 la_data_out[65] 0
6 *234:13 la_data_out[65] 0
*RES
1 *646:la_data_out[65] *361:5 87.4911 
2 *361:5 la_data_out[65] 11.7825 
*END

*D_NET *362 0.0109173
*CONN
*P la_data_out[66] O
*I *646:la_data_out[66] O *D senseedge_top
*CAP
1 la_data_out[66] 0.0011032
2 *646:la_data_out[66] 0.00398338
3 *362:5 0.00508658
4 la_data_out[66] la_data_out[67] 0
5 la_data_out[66] *363:5 0
6 *234:13 la_data_out[66] 0.000744121
*RES
1 *646:la_data_out[66] *362:5 82.0268 
2 *362:5 la_data_out[66] 17.3128 
*END

*D_NET *363 0.0112365
*CONN
*P la_data_out[67] O
*I *646:la_data_out[67] O *D senseedge_top
*CAP
1 la_data_out[67] 0.00131981
2 *646:la_data_out[67] 0.00429844
3 *363:5 0.00561826
4 la_data_out[66] la_data_out[67] 0
5 la_data_out[66] *363:5 0
6 *234:13 *363:5 0
7 *236:13 la_data_out[67] 0
*RES
1 *646:la_data_out[67] *363:5 88.0982 
2 *363:5 la_data_out[67] 10.9219 
*END

*D_NET *364 0.0117522
*CONN
*P la_data_out[68] O
*I *646:la_data_out[68] O *D senseedge_top
*CAP
1 la_data_out[68] 0.00166551
2 *646:la_data_out[68] 0.00360323
3 *364:5 0.00526874
4 la_data_out[68] *491:13 0.00023996
5 la_data_out[68] *492:13 0
6 la_data_out[68] *493:15 0
7 *237:13 la_data_out[68] 0.000974805
*RES
1 *646:la_data_out[68] *364:5 74.1339 
2 *364:5 la_data_out[68] 25.9046 
*END

*D_NET *365 0.0119858
*CONN
*P la_data_out[69] O
*I *646:la_data_out[69] O *D senseedge_top
*CAP
1 la_data_out[69] 0.00258381
2 *646:la_data_out[69] 0.0028456
3 *365:5 0.00542941
4 la_data_out[69] la_data_out[70] 0.000543613
5 la_data_out[69] *491:13 0
6 la_data_out[69] *492:13 0
7 la_data_out[69] *493:13 0.000153492
8 *646:la_data_in[69] la_data_out[69] 0
9 *236:13 la_data_out[69] 0.000157556
10 *239:13 la_data_out[69] 0.000272319
*RES
1 *646:la_data_out[69] *365:5 58.8125 
2 *365:5 la_data_out[69] 42.5858 
*END

*D_NET *366 0.0149995
*CONN
*P la_data_out[6] O
*I *646:la_data_out[6] O *D senseedge_top
*CAP
1 la_data_out[6] 4.32496e-05
2 *646:la_data_out[6] 0.00423969
3 *366:13 0.00238491
4 *366:11 0.00658134
5 *366:11 *388:11 0
6 *646:la_data_in[4] *366:11 0
7 *333:5 *366:13 0.00175034
*RES
1 *646:la_data_out[6] *366:11 39.8218 
2 *366:11 *366:13 63.2679 
3 *366:13 la_data_out[6] 0.883929 
*END

*D_NET *367 0.0134233
*CONN
*P la_data_out[70] O
*I *646:la_data_out[70] O *D senseedge_top
*CAP
1 la_data_out[70] 0.000967732
2 *646:la_data_out[70] 0.00392954
3 *367:5 0.00489728
4 la_data_out[70] la_data_out[71] 0.000140784
5 la_data_out[69] la_data_out[70] 0.000543613
6 *237:13 *367:5 0.000942629
7 *239:13 la_data_out[70] 0.00200168
*RES
1 *646:la_data_out[70] *367:5 85.0625 
2 *367:5 la_data_out[70] 14.9978 
*END

*D_NET *368 0.0118607
*CONN
*P la_data_out[71] O
*I *646:la_data_out[71] O *D senseedge_top
*CAP
1 la_data_out[71] 0.00151728
2 *646:la_data_out[71] 0.00419502
3 *368:5 0.00571231
4 la_data_out[71] la_data_out[72] 0
5 la_data_out[71] *646:la_oenb[72] 0
6 la_data_out[71] *496:13 0
7 la_data_out[71] *497:13 9.55502e-05
8 la_data_out[70] la_data_out[71] 0.000140784
9 *239:13 la_data_out[71] 0.000199763
*RES
1 *646:la_data_out[71] *368:5 83.2411 
2 *368:5 la_data_out[71] 17.374 
*END

*D_NET *369 0.0122677
*CONN
*P la_data_out[72] O
*I *646:la_data_out[72] O *D senseedge_top
*CAP
1 la_data_out[72] 0.00163443
2 *646:la_data_out[72] 0.00449944
3 *369:5 0.00613387
4 la_data_out[72] *497:13 0
5 *369:5 *495:13 0
6 la_data_out[71] la_data_out[72] 0
7 *240:13 *369:5 0
*RES
1 *646:la_data_out[72] *369:5 89.3125 
2 *369:5 la_data_out[72] 12.5909 
*END

*D_NET *370 0.0119664
*CONN
*P la_data_out[73] O
*I *646:la_data_out[73] O *D senseedge_top
*CAP
1 la_data_out[73] 0.00165616
2 *646:la_data_out[73] 0.00405093
3 *370:5 0.00570709
4 la_data_out[73] *497:13 0.000552213
5 *370:5 *496:13 0
6 *241:13 *370:5 0
7 *243:13 la_data_out[73] 0
*RES
1 *646:la_data_out[73] *370:5 83.2411 
2 *370:5 la_data_out[73] 17.3957 
*END

*D_NET *371 0.0125492
*CONN
*P la_data_out[74] O
*I *646:la_data_out[74] O *D senseedge_top
*CAP
1 la_data_out[74] 0.00285627
2 *646:la_data_out[74] 0.00284651
3 *371:5 0.00570278
4 la_data_out[74] *497:13 0.000253725
5 *243:13 la_data_out[74] 0.000889929
6 *243:15 la_data_out[74] 0
*RES
1 *646:la_data_out[74] *371:5 58.8125 
2 *371:5 la_data_out[74] 44.9002 
*END

*D_NET *372 0.0127436
*CONN
*P la_data_out[75] O
*I *646:la_data_out[75] O *D senseedge_top
*CAP
1 la_data_out[75] 0.00194036
2 *646:la_data_out[75] 0.0034881
3 *372:5 0.00542846
4 la_data_out[75] *374:5 0
5 la_data_out[75] *500:13 0.000544724
6 la_data_out[75] *501:13 0.000710364
7 *372:5 *498:13 0.000548837
8 *244:13 la_data_out[75] 8.27627e-05
*RES
1 *646:la_data_out[75] *372:5 74.1339 
2 *372:5 la_data_out[75] 27.2018 
*END

*D_NET *373 0.0117659
*CONN
*P la_data_out[76] O
*I *646:la_data_out[76] O *D senseedge_top
*CAP
1 la_data_out[76] 0.001805
2 *646:la_data_out[76] 0.00407793
3 *373:5 0.00588293
4 *373:5 *499:9 0
5 *373:5 *499:13 0
6 *247:13 la_data_out[76] 0
*RES
1 *646:la_data_out[76] *373:5 83.2411 
2 *373:5 la_data_out[76] 18.2388 
*END

*D_NET *374 0.0137429
*CONN
*P la_data_out[77] O
*I *646:la_data_out[77] O *D senseedge_top
*CAP
1 la_data_out[77] 0.00168302
2 *646:la_data_out[77] 0.00368705
3 *374:5 0.00537007
4 la_data_out[77] la_data_out[79] 0.000995564
5 la_data_out[77] *501:13 0.000648659
6 la_data_out[77] *502:13 0.00135859
7 *374:5 *500:13 0
8 la_data_out[75] *374:5 0
*RES
1 *646:la_data_out[77] *374:5 75.3482 
2 *374:5 la_data_out[77] 26.0092 
*END

*D_NET *375 0.0150892
*CONN
*P la_data_out[78] O
*I *646:la_data_out[78] O *D senseedge_top
*CAP
1 la_data_out[78] 0.000646486
2 *646:la_data_out[78] 0.00321032
3 *375:13 0.00233131
4 *375:11 0.00489514
5 *375:11 *646:la_oenb[78] 0
6 *375:13 *378:5 0.00400594
*RES
1 *646:la_data_out[78] *375:11 37.0832 
2 *375:11 *375:13 52.4643 
3 *375:13 la_data_out[78] 12.9554 
*END

*D_NET *376 0.0139027
*CONN
*P la_data_out[79] O
*I *646:la_data_out[79] O *D senseedge_top
*CAP
1 la_data_out[79] 0.00358998
2 *646:la_data_out[79] 0.00286358
3 *376:5 0.00645357
4 la_data_out[79] la_data_out[81] 0
5 la_data_out[77] la_data_out[79] 0.000995564
6 *646:la_data_in[79] la_data_out[79] 0
*RES
1 *646:la_data_out[79] *376:5 58.8125 
2 *376:5 la_data_out[79] 45.2672 
*END

*D_NET *377 0.0141123
*CONN
*P la_data_out[7] O
*I *646:la_data_out[7] O *D senseedge_top
*CAP
1 la_data_out[7] 0.00433736
2 *646:la_data_out[7] 0.00271878
3 *377:5 0.00705614
4 la_data_out[7] *483:15 0
5 la_data_out[7] *505:9 0
6 *377:5 *527:13 0
7 *344:5 la_data_out[7] 0
*RES
1 *646:la_data_out[7] *377:5 55.3125 
2 *377:5 la_data_out[7] 48.5673 
*END

*D_NET *378 0.0166555
*CONN
*P la_data_out[80] O
*I *646:la_data_out[80] O *D senseedge_top
*CAP
1 la_data_out[80] 0.00237942
2 *646:la_data_out[80] 0.00274058
3 *378:5 0.00512
4 la_data_out[80] *646:la_oenb[82] 0
5 la_data_out[80] *504:13 0
6 la_data_out[80] *506:13 0
7 *250:13 la_data_out[80] 0
8 *251:13 la_data_out[80] 0.00240954
9 *375:13 *378:5 0.00400594
*RES
1 *646:la_data_out[80] *378:5 74.1339 
2 *378:5 la_data_out[80] 27.8001 
*END

*D_NET *379 0.0144158
*CONN
*P la_data_out[81] O
*I *646:la_data_out[81] O *D senseedge_top
*CAP
1 la_data_out[81] 0.00183815
2 *646:la_data_out[81] 0.00410676
3 *379:5 0.00594491
4 la_data_out[81] *507:13 0
5 la_data_out[81] *509:13 0
6 la_data_out[79] la_data_out[81] 0
7 *250:13 la_data_out[81] 0
8 *252:13 la_data_out[81] 0.00252599
9 *253:15 la_data_out[81] 0
*RES
1 *646:la_data_out[81] *379:5 83.8482 
2 *379:5 la_data_out[81] 18.2299 
*END

*D_NET *380 0.0128767
*CONN
*P la_data_out[82] O
*I *646:la_data_out[82] O *D senseedge_top
*CAP
1 la_data_out[82] 4.32496e-05
2 *646:la_data_out[82] 0.00362197
3 *380:13 0.00281639
4 *380:11 0.0063951
5 *380:13 *510:15 0
*RES
1 *646:la_data_out[82] *380:11 44.4825 
2 *380:11 *380:13 56.5893 
3 *380:13 la_data_out[82] 0.883929 
*END

*D_NET *381 0.0149744
*CONN
*P la_data_out[83] O
*I *646:la_data_out[83] O *D senseedge_top
*CAP
1 la_data_out[83] 0.0010434
2 *646:la_data_out[83] 0.00271651
3 *381:13 0.00282401
4 *381:11 0.00449712
5 la_data_out[83] *646:la_oenb[85] 0.00228486
6 *381:11 *383:11 0
7 *381:13 *646:la_oenb[85] 0.00160852
8 *646:la_data_in[86] *381:13 0
*RES
1 *646:la_data_out[83] *381:11 21.0922 
2 *381:11 *381:13 50.9821 
3 *381:13 la_data_out[83] 31.2411 
*END

*D_NET *382 0.0137097
*CONN
*P la_data_out[84] O
*I *646:la_data_out[84] O *D senseedge_top
*CAP
1 la_data_out[84] 0.00274197
2 *646:la_data_out[84] 0.00376872
3 *382:5 0.00651069
4 *646:la_data_in[87] la_data_out[84] 0
5 *254:13 la_data_out[84] 0.000688343
*RES
1 *646:la_data_out[84] *382:5 74.7411 
2 *382:5 la_data_out[84] 27.9136 
*END

*D_NET *383 0.0134174
*CONN
*P la_data_out[85] O
*I *646:la_data_out[85] O *D senseedge_top
*CAP
1 la_data_out[85] 0.0015069
2 *646:la_data_out[85] 0.00291848
3 *383:15 0.00379021
4 *383:11 0.00520179
5 la_data_out[85] *646:la_oenb[87] 0
6 *383:11 *646:la_oenb[86] 0
7 *383:15 *646:la_oenb[87] 0
8 *646:la_data_in[88] la_data_out[85] 0
9 *646:la_data_in[88] *383:15 0
10 *381:11 *383:11 0
*RES
1 *646:la_data_out[85] *383:11 26.3096 
2 *383:11 *383:15 47.0714 
3 *383:15 la_data_out[85] 30.2946 
*END

*D_NET *384 0.0163969
*CONN
*P la_data_out[86] O
*I *646:la_data_out[86] O *D senseedge_top
*CAP
1 la_data_out[86] 0.00108445
2 *646:la_data_out[86] 0.00415718
3 *384:5 0.00524164
4 la_data_out[86] la_data_out[87] 0.000961096
5 la_data_out[86] la_data_out[88] 0.000911544
6 la_data_out[86] *510:13 0.000694991
7 la_data_out[86] *511:13 0.000150509
8 *254:13 *384:5 0
9 *255:13 la_data_out[86] 0.00181484
10 *257:13 la_data_out[86] 0.00138069
11 *259:13 la_data_out[86] 0
*RES
1 *646:la_data_out[86] *384:5 85.0625 
2 *384:5 la_data_out[86] 18.8983 
*END

*D_NET *385 0.0170338
*CONN
*P la_data_out[87] O
*I *646:la_data_out[87] O *D senseedge_top
*CAP
1 la_data_out[87] 0.000955471
2 *646:la_data_out[87] 0.0042021
3 *385:5 0.00515757
4 la_data_out[87] la_data_out[88] 0.00265117
5 la_data_out[87] *511:13 0.00137391
6 la_data_out[87] *513:13 0.00166297
7 la_data_out[86] la_data_out[87] 0.000961096
8 *646:la_data_in[90] la_data_out[87] 1.90555e-05
9 *255:13 *385:5 5.04362e-05
*RES
1 *646:la_data_out[87] *385:5 86.2768 
2 *385:5 la_data_out[87] 17.221 
*END

*D_NET *386 0.0174527
*CONN
*P la_data_out[88] O
*I *646:la_data_out[88] O *D senseedge_top
*CAP
1 la_data_out[88] 0.0010655
2 *646:la_data_out[88] 0.00417876
3 *386:5 0.00524426
4 la_data_out[88] la_data_out[89] 0.000975874
5 la_data_out[88] la_data_out[90] 0.00116382
6 la_data_out[88] *513:13 4.1819e-05
7 la_data_out[86] la_data_out[88] 0.000911544
8 la_data_out[87] la_data_out[88] 0.00265117
9 *257:13 la_data_out[88] 0.000255063
10 *261:13 la_data_out[88] 0.000964855
*RES
1 *646:la_data_out[88] *386:5 85.6696 
2 *386:5 la_data_out[88] 17.7057 
*END

*D_NET *387 0.0200727
*CONN
*P la_data_out[89] O
*I *646:la_data_out[89] O *D senseedge_top
*CAP
1 la_data_out[89] 0.00190962
2 *646:la_data_out[89] 0.000426987
3 *387:9 0.0042675
4 *387:7 0.00278486
5 la_data_out[89] la_data_out[90] 0.0029036
6 la_data_out[89] *391:5 0
7 *387:9 *512:11 0.00619242
8 la_data_out[88] la_data_out[89] 0.000975874
9 *646:la_data_in[89] *387:9 0
10 *646:la_data_in[92] la_data_out[89] 9.17147e-05
11 *257:13 la_data_out[89] 0.000520107
12 *259:13 *387:9 0
13 *262:13 la_data_out[89] 0
*RES
1 *646:la_data_out[89] *387:7 8.90179 
2 *387:7 *387:9 76.625 
3 *387:9 la_data_out[89] 19.2082 
*END

*D_NET *388 0.0145204
*CONN
*P la_data_out[8] O
*I *646:la_data_out[8] O *D senseedge_top
*CAP
1 la_data_out[8] 0.000640806
2 *646:la_data_out[8] 0.00365157
3 *388:13 0.00269057
4 *388:11 0.00570133
5 *388:11 *399:11 0
6 *646:la_data_in[8] *388:11 0
7 *249:15 la_data_out[8] 0
8 *249:15 *388:13 0.00183611
9 *366:11 *388:11 0
*RES
1 *646:la_data_out[8] *388:11 33.1738 
2 *388:11 *388:13 58.5357 
3 *388:13 la_data_out[8] 12.9554 
*END

*D_NET *389 0.0171941
*CONN
*P la_data_out[90] O
*I *646:la_data_out[90] O *D senseedge_top
*CAP
1 la_data_out[90] 0.00155088
2 *646:la_data_out[90] 0.00414092
3 *389:5 0.00569181
4 la_data_out[90] *518:13 0.00134303
5 la_data_out[88] la_data_out[90] 0.00116382
6 la_data_out[89] la_data_out[90] 0.0029036
7 *261:13 la_data_out[90] 0.000399983
8 *262:13 la_data_out[90] 0
*RES
1 *646:la_data_out[90] *389:5 85.0625 
2 *389:5 la_data_out[90] 19.0118 
*END

*D_NET *390 0.0193065
*CONN
*P la_data_out[91] O
*I *646:la_data_out[91] O *D senseedge_top
*CAP
1 la_data_out[91] 0.00115577
2 *646:la_data_out[91] 0.00429228
3 *390:5 0.00544805
4 la_data_out[91] *646:la_oenb[88] 7.7488e-05
5 la_data_out[91] *518:13 0.000770898
6 la_data_out[91] *520:13 0.000980459
7 *259:11 la_data_out[91] 0.000376473
8 *261:13 la_data_out[91] 0.00246692
9 *263:11 la_data_out[91] 0.00373814
*RES
1 *646:la_data_out[91] *390:5 87.4911 
2 *390:5 la_data_out[91] 16.4608 
*END

*D_NET *391 0.0171749
*CONN
*P la_data_out[92] O
*I *646:la_data_out[92] O *D senseedge_top
*CAP
1 la_data_out[92] 0.00182959
2 *646:la_data_out[92] 0.00440013
3 *391:5 0.00622972
4 la_data_out[92] *519:11 0.00439273
5 *391:5 *515:9 0
6 *391:5 *515:11 0
7 la_data_out[89] *391:5 0
8 *263:11 la_data_out[92] 0.000322767
*RES
1 *646:la_data_out[92] *391:5 89.3125 
2 *391:5 la_data_out[92] 15.8728 
*END

*D_NET *392 0.0174737
*CONN
*P la_data_out[93] O
*I *646:la_data_out[93] O *D senseedge_top
*CAP
1 la_data_out[93] 0.00174728
2 *646:la_data_out[93] 0.00414904
3 *392:5 0.00589632
4 la_data_out[93] la_data_out[94] 0
5 la_data_out[93] *518:13 0.00118027
6 la_data_out[93] *520:13 0.000259199
7 la_data_out[93] *521:13 0.00271714
8 *392:5 *517:9 0
9 *392:5 *517:13 0
10 *262:13 la_data_out[93] 0
11 *266:13 la_data_out[93] 0.000914959
12 *267:13 la_data_out[93] 0.000609506
*RES
1 *646:la_data_out[93] *392:5 85.0625 
2 *392:5 la_data_out[93] 20.1955 
*END

*D_NET *393 0.0144498
*CONN
*P la_data_out[94] O
*I *646:la_data_out[94] O *D senseedge_top
*CAP
1 la_data_out[94] 0.00329107
2 *646:la_data_out[94] 0.00393383
3 *393:5 0.0072249
4 la_data_out[94] *521:13 0
5 la_data_out[93] la_data_out[94] 0
6 *264:13 la_data_out[94] 0
*RES
1 *646:la_data_out[94] *393:5 80.8125 
2 *393:5 la_data_out[94] 23.9825 
*END

*D_NET *394 0.0204559
*CONN
*P la_data_out[95] O
*I *646:la_data_out[95] O *D senseedge_top
*CAP
1 la_data_out[95] 0.00101942
2 *646:la_data_out[95] 0.00444526
3 *394:5 0.00546468
4 la_data_out[95] *519:11 0.000294817
5 la_data_out[95] *520:13 0.00236676
6 la_data_out[95] *522:17 0.00480654
7 *266:13 la_data_out[95] 0.00114313
8 *269:13 la_data_out[95] 0.000915339
*RES
1 *646:la_data_out[95] *394:5 87.4911 
2 *394:5 la_data_out[95] 17.1815 
*END

*D_NET *395 0.0170077
*CONN
*P la_data_out[96] O
*I *646:la_data_out[96] O *D senseedge_top
*CAP
1 la_data_out[96] 0.00110344
2 *646:la_data_out[96] 0.00351104
3 *395:15 0.00254257
4 *395:11 0.00495017
5 la_data_out[96] *646:la_oenb[99] 0.00114266
6 *395:11 *646:la_oenb[97] 0
7 *395:11 *396:11 0
8 *395:15 *646:la_oenb[99] 0.0037578
9 *646:la_data_in[94] *395:11 0
*RES
1 *646:la_data_out[96] *395:11 28.2554 
2 *395:11 *395:15 46.6607 
3 *395:15 la_data_out[96] 30.2946 
*END

*D_NET *396 0.0166214
*CONN
*P la_data_out[97] O
*I *646:la_data_out[97] O *D senseedge_top
*CAP
1 la_data_out[97] 0.00104501
2 *646:la_data_out[97] 0.003448
3 *396:13 0.00287895
4 *396:11 0.00528194
5 la_data_out[97] *646:la_oenb[100] 0.00232966
6 la_data_out[97] *526:15 0
7 *396:13 *646:la_oenb[100] 0.00163789
8 *646:la_data_in[101] *396:13 0
9 *273:11 *396:11 0
10 *395:11 *396:11 0
*RES
1 *646:la_data_out[97] *396:11 22.4723 
2 *396:11 *396:13 52.1964 
3 *396:13 la_data_out[97] 31.2411 
*END

*D_NET *397 0.0217227
*CONN
*P la_data_out[98] O
*I *646:la_data_out[98] O *D senseedge_top
*CAP
1 la_data_out[98] 0.00115124
2 *646:la_data_out[98] 0.00421659
3 *397:5 0.00536784
4 la_data_out[98] *401:13 0.00012959
5 la_data_out[98] *525:21 0.00403208
6 *267:13 la_data_out[98] 0.00147815
7 *269:13 la_data_out[98] 0.00534717
*RES
1 *646:la_data_out[98] *397:5 86.2768 
2 *397:5 la_data_out[98] 19.2389 
*END

*D_NET *398 0.0191585
*CONN
*P la_data_out[99] O
*I *646:la_data_out[99] O *D senseedge_top
*CAP
1 la_data_out[99] 0.00103477
2 *646:la_data_out[99] 0.00675686
3 *398:26 0.00779163
4 la_data_out[99] *401:13 0.000942297
5 la_data_out[99] *526:15 0.00141634
6 *398:26 *525:21 0.000235279
7 *398:26 *526:21 0.000414727
8 *145:13 *398:26 0.000566565
*RES
1 *646:la_data_out[99] *398:26 37.2543 
2 *398:26 la_data_out[99] 31.0357 
*END

*D_NET *399 0.014379
*CONN
*P la_data_out[9] O
*I *646:la_data_out[9] O *D senseedge_top
*CAP
1 la_data_out[9] 4.32496e-05
2 *646:la_data_out[9] 0.00404661
3 *399:13 0.00314288
4 *399:11 0.00714625
5 *260:13 *399:13 0
6 *271:13 *399:13 0
7 *388:11 *399:11 0
*RES
1 *646:la_data_out[9] *399:11 39.3173 
2 *399:11 *399:13 63.2679 
3 *399:13 la_data_out[9] 0.883929 
*END

*D_NET *400 0.015023
*CONN
*P la_oenb[0] I
*I *646:la_oenb[0] I *D senseedge_top
*CAP
1 la_oenb[0] 4.32496e-05
2 *646:la_oenb[0] 0.00446041
3 *400:7 0.00727052
4 *400:5 0.00285336
5 *646:la_oenb[0] *646:la_oenb[3] 0
6 *646:la_oenb[0] *461:11 0
7 *646:la_oenb[0] *599:13 0
8 *216:7 *646:la_oenb[0] 0.000395489
9 *272:13 *400:7 0
*RES
1 la_oenb[0] *400:5 0.883929 
2 *400:5 *400:7 57.1964 
3 *400:7 *646:la_oenb[0] 47.5813 
*END

*D_NET *401 0.0228803
*CONN
*P la_oenb[100] I
*I *646:la_oenb[100] I *D senseedge_top
*CAP
1 la_oenb[100] 0.00169653
2 *646:la_oenb[100] 0.00307609
3 *401:13 0.00477261
4 *401:13 *525:21 0.000305014
5 *401:13 *526:15 0.000447595
6 la_data_out[100] *401:13 0
7 la_data_out[103] *401:13 0.000792635
8 la_data_out[97] *646:la_oenb[100] 0.00232966
9 la_data_out[98] *401:13 0.00012959
10 la_data_out[99] *401:13 0.000942297
11 *146:11 *401:13 0.00162566
12 *147:13 *401:13 0.000742235
13 *269:13 *401:13 0.00145405
14 *270:11 *401:13 0.00292849
15 *396:13 *646:la_oenb[100] 0.00163789
*RES
1 la_oenb[100] *401:13 18.457 
2 *401:13 *646:la_oenb[100] 87.4911 
*END

*D_NET *402 0.0187434
*CONN
*P la_oenb[101] I
*I *646:la_oenb[101] I *D senseedge_top
*CAP
1 la_oenb[101] 4.32496e-05
2 *646:la_oenb[101] 0.00428948
3 *402:7 0.00649153
4 *402:5 0.0022453
5 *646:la_data_in[105] *646:la_oenb[101] 0
6 *273:11 *646:la_oenb[101] 0
7 *278:9 *402:7 0.00567383
*RES
1 la_oenb[101] *402:5 0.883929 
2 *402:5 *402:7 69.9464 
3 *402:7 *646:la_oenb[101] 35.2637 
*END

*D_NET *403 0.0159614
*CONN
*P la_oenb[102] I
*I *646:la_oenb[102] I *D senseedge_top
*CAP
1 la_oenb[102] 4.32496e-05
2 *646:la_oenb[102] 0.00510616
3 *403:7 0.00793745
4 *403:5 0.00287454
5 *403:7 *646:la_oenb[106] 0
6 *148:9 *403:7 0
*RES
1 la_oenb[102] *403:5 0.883929 
2 *403:5 *403:7 57.1964 
3 *403:7 *646:la_oenb[102] 48.4461 
*END

*D_NET *404 0.0159542
*CONN
*P la_oenb[103] I
*I *646:la_oenb[103] I *D senseedge_top
*CAP
1 la_oenb[103] 0.00440023
2 *646:la_oenb[103] 0.003334
3 *404:13 0.00773423
4 la_data_out[100] *646:la_oenb[103] 0
5 *280:5 *404:13 0.00048575
*RES
1 la_oenb[103] *404:13 38.4621 
2 *404:13 *646:la_oenb[103] 68.0625 
*END

*D_NET *405 0.0214463
*CONN
*P la_oenb[104] I
*I *646:la_oenb[104] I *D senseedge_top
*CAP
1 la_oenb[104] 0.00181265
2 *646:la_oenb[104] 0.00081222
3 *405:13 0.00439371
4 *405:11 0.00539414
5 *405:11 *407:13 0.000189849
6 la_data_out[101] *405:11 0.000273429
7 la_data_out[104] *405:11 0.00317078
8 la_data_out[105] *405:11 0.0053995
*RES
1 la_oenb[104] *405:11 18.0348 
2 *405:11 *405:13 72.5357 
3 *405:13 *646:la_oenb[104] 16.6339 
*END

*D_NET *406 0.0208493
*CONN
*P la_oenb[105] I
*I *646:la_oenb[105] I *D senseedge_top
*CAP
1 la_oenb[105] 0.00178698
2 *646:la_oenb[105] 0.00417429
3 *406:13 0.00596127
4 *406:13 *407:13 0.00490227
5 *406:13 *410:17 0
6 la_data_out[103] *406:13 0.000926159
7 la_data_out[107] *406:13 0.000970558
8 la_data_out[108] *406:13 0.0021278
9 *149:13 *406:13 0
*RES
1 la_oenb[105] *406:13 21.4838 
2 *406:13 *646:la_oenb[105] 85.0625 
*END

*D_NET *407 0.0223443
*CONN
*P la_oenb[106] I
*I *646:la_oenb[106] I *D senseedge_top
*CAP
1 la_oenb[106] 0.00121912
2 *646:la_oenb[106] 0.00384903
3 *407:13 0.00506815
4 *407:13 *409:17 0.0033298
5 *407:13 *412:13 0.000198468
6 la_data_out[103] *407:13 0.00072525
7 la_data_out[104] *407:13 0.000980009
8 la_data_out[105] *407:13 4.22338e-05
9 la_data_out[108] *407:13 0.00100606
10 *148:9 *646:la_oenb[106] 0.000834025
11 *148:11 *646:la_oenb[106] 0
12 *403:7 *646:la_oenb[106] 0
13 *405:11 *407:13 0.000189849
14 *406:13 *407:13 0.00490227
*RES
1 la_oenb[106] *407:13 21.4315 
2 *407:13 *646:la_oenb[106] 85.6696 
*END

*D_NET *408 0.0163141
*CONN
*P la_oenb[107] I
*I *646:la_oenb[107] I *D senseedge_top
*CAP
1 la_oenb[107] 0.00124571
2 *646:la_oenb[107] 0.0039467
3 *408:11 0.0064932
4 *408:9 0.00379221
5 *408:9 *646:la_oenb[111] 0.00083627
6 *408:11 *646:la_oenb[111] 0
7 la_data_out[107] *408:9 0
8 *646:la_data_in[105] *646:la_oenb[107] 0
9 *646:la_data_in[109] *646:la_oenb[107] 0
10 *646:la_data_in[112] *408:9 0
11 *646:la_data_in[112] *408:11 0
*RES
1 la_oenb[107] *408:9 31.8482 
2 *408:9 *408:11 52.1964 
3 *408:11 *646:la_oenb[107] 24.346 
*END

*D_NET *409 0.0227453
*CONN
*P la_oenb[108] I
*I *646:la_oenb[108] I *D senseedge_top
*CAP
1 la_oenb[108] 0.00139815
2 *646:la_oenb[108] 0.00426713
3 *409:17 0.00566528
4 *409:17 *413:13 0.000347372
5 la_data_out[105] *409:17 0.000263592
6 la_data_out[108] *409:17 0.00272937
7 la_data_out[109] *409:17 0.00474457
8 *646:la_data_in[105] *646:la_oenb[108] 0
9 *407:13 *409:17 0.0033298
*RES
1 la_oenb[108] *409:17 20.4394 
2 *409:17 *646:la_oenb[108] 86.2768 
*END

*D_NET *410 0.0248946
*CONN
*P la_oenb[109] I
*I *646:la_oenb[109] I *D senseedge_top
*CAP
1 la_oenb[109] 0.00181887
2 *646:la_oenb[109] 0.000820348
3 *410:17 0.00440926
4 *410:15 0.00540778
5 *410:15 *412:13 0.00564162
6 *410:15 *413:13 3.71746e-05
7 *410:15 *415:17 0.000221409
8 la_data_out[109] *410:15 0.00624257
9 la_data_out[110] *410:15 0.000295544
10 *646:la_data_in[110] *410:17 0
11 *156:17 *410:17 0
12 *406:13 *410:17 0
*RES
1 la_oenb[109] *410:15 20.3836 
2 *410:15 *410:17 72.5357 
3 *410:17 *646:la_oenb[109] 16.6339 
*END

*D_NET *411 0.0168774
*CONN
*P la_oenb[10] I
*I *646:la_oenb[10] I *D senseedge_top
*CAP
1 la_oenb[10] 0.00108505
2 *646:la_oenb[10] 0.00196881
3 *411:15 0.00380036
4 *411:13 0.0029166
5 *646:la_oenb[10] *646:la_oenb[12] 0.00100915
6 *646:la_oenb[10] *646:la_oenb[9] 0.00101376
7 la_data_out[10] *411:13 0
8 *646:la_data_in[8] *411:15 0.000624494
9 *155:15 *411:13 0.0021517
10 *155:15 *411:15 0.00230744
*RES
1 la_oenb[10] *411:13 32.0982 
2 *411:13 *411:15 57.6607 
3 *411:15 *646:la_oenb[10] 15.2063 
*END

*D_NET *412 0.025134
*CONN
*P la_oenb[110] I
*I *646:la_oenb[110] I *D senseedge_top
*CAP
1 la_oenb[110] 0.00307713
2 *646:la_oenb[110] 0.00286272
3 *412:15 0.00290769
4 *412:13 0.00312209
5 *412:13 *415:17 0.000153759
6 la_data_out[110] *412:13 0.00663972
7 la_data_out[114] *412:13 0.000530793
8 *279:13 *412:13 0
9 *407:13 *412:13 0.000198468
10 *410:15 *412:13 0.00564162
*RES
1 la_oenb[110] *412:13 49.7605 
2 *412:13 *412:15 0.946429 
3 *412:15 *646:la_oenb[110] 58.8125 
*END

*D_NET *413 0.022814
*CONN
*P la_oenb[111] I
*I *646:la_oenb[111] I *D senseedge_top
*CAP
1 la_oenb[111] 0.00209512
2 *646:la_oenb[111] 0.00383958
3 *413:13 0.0059347
4 *413:13 *415:17 0.00133348
5 *413:13 *416:13 0.00217491
6 la_data_out[107] *646:la_oenb[111] 0
7 la_data_out[108] *413:13 0.0012772
8 la_data_out[109] *413:13 0.000448422
9 la_data_out[113] *413:13 0.00448978
10 *153:13 *413:13 0
11 *158:13 *413:13 0
12 *408:9 *646:la_oenb[111] 0.00083627
13 *408:11 *646:la_oenb[111] 0
14 *409:17 *413:13 0.000347372
15 *410:15 *413:13 3.71746e-05
*RES
1 la_oenb[111] *413:13 21.619 
2 *413:13 *646:la_oenb[111] 85.6696 
*END

*D_NET *414 0.0173531
*CONN
*P la_oenb[112] I
*I *646:la_oenb[112] I *D senseedge_top
*CAP
1 la_oenb[112] 0.00231516
2 *646:la_oenb[112] 0.00213896
3 *414:13 0.00636141
4 *414:9 0.00653762
5 *161:13 *414:13 0
6 *291:5 *414:9 0
*RES
1 la_oenb[112] *414:9 49.3475 
2 *414:9 *414:13 14.9877 
3 *414:13 *646:la_oenb[112] 43.7768 
*END

*D_NET *415 0.0257
*CONN
*P la_oenb[113] I
*I *646:la_oenb[113] I *D senseedge_top
*CAP
1 la_oenb[113] 0.00158471
2 *646:la_oenb[113] 0.00439909
3 *415:17 0.00598379
4 *415:17 *416:13 0.000190597
5 la_data_out[113] *415:17 0.00551177
6 la_data_out[114] *415:17 0.0063214
7 *410:15 *415:17 0.000221409
8 *412:13 *415:17 0.000153759
9 *413:13 *415:17 0.00133348
*RES
1 la_oenb[113] *415:17 21.3763 
2 *415:17 *646:la_oenb[113] 86.2768 
*END

*D_NET *416 0.0199671
*CONN
*P la_oenb[114] I
*I *646:la_oenb[114] I *D senseedge_top
*CAP
1 la_oenb[114] 0.0031612
2 *646:la_oenb[114] 0.000839387
3 *416:15 0.00437222
4 *416:13 0.00669403
5 la_data_out[113] *416:13 0.00164168
6 la_data_out[114] *416:13 7.14639e-05
7 la_data_out[118] *416:13 0.000821651
8 *646:la_data_in[115] *416:15 0
9 *158:13 *416:13 0
10 *413:13 *416:13 0.00217491
11 *415:17 *416:13 0.000190597
*RES
1 la_oenb[114] *416:13 23.3358 
2 *416:13 *416:15 69.5 
3 *416:15 *646:la_oenb[114] 16.6339 
*END

*D_NET *417 0.0176616
*CONN
*P la_oenb[115] I
*I *646:la_oenb[115] I *D senseedge_top
*CAP
1 la_oenb[115] 0.000674069
2 *646:la_oenb[115] 0.00582824
3 *417:13 0.00743906
4 *417:9 0.0022849
5 *417:9 *646:la_oenb[120] 0
6 *417:13 *646:la_oenb[120] 0
7 *295:5 *417:9 0
8 *295:5 *417:13 0.00143531
*RES
1 la_oenb[115] *417:9 12.9554 
2 *417:9 *417:13 49.1957 
3 *417:13 *646:la_oenb[115] 47.4143 
*END

*D_NET *418 0.0178888
*CONN
*P la_oenb[116] I
*I *646:la_oenb[116] I *D senseedge_top
*CAP
1 la_oenb[116] 0.00588968
2 *646:la_oenb[116] 0.00300741
3 *418:13 0.00889709
4 *418:13 *646:la_oenb[121] 0
5 la_data_out[112] *646:la_oenb[116] 9.4616e-05
6 *160:13 *418:13 0
7 *286:13 *646:la_oenb[116] 0
8 *296:5 *418:13 0
*RES
1 la_oenb[116] *418:13 46.5227 
2 *418:13 *646:la_oenb[116] 61.9911 
*END

*D_NET *419 0.0211754
*CONN
*P la_oenb[117] I
*I *646:la_oenb[117] I *D senseedge_top
*CAP
1 la_oenb[117] 0.0104867
2 *646:la_oenb[117] 0.0104867
3 *646:la_oenb[117] *423:13 0.000100938
4 *646:la_oenb[117] *424:15 0.000100938
*RES
1 la_oenb[117] *646:la_oenb[117] 33.2593 
*END

*D_NET *420 0.0260179
*CONN
*P la_oenb[118] I
*I *646:la_oenb[118] I *D senseedge_top
*CAP
1 la_oenb[118] 0.00149921
2 *646:la_oenb[118] 0.00427942
3 *420:13 0.00577863
4 *420:13 *421:13 0.000320163
5 *420:13 *423:13 0.00475783
6 la_data_out[114] *420:13 0.000590514
7 la_data_out[116] *420:13 0.000473155
8 la_data_out[118] *420:13 0.00747535
9 *160:13 *646:la_oenb[118] 0
10 *289:15 *420:13 0.000843677
*RES
1 la_oenb[118] *420:13 21.7019 
2 *420:13 *646:la_oenb[118] 86.8839 
*END

*D_NET *421 0.0248742
*CONN
*P la_oenb[119] I
*I *646:la_oenb[119] I *D senseedge_top
*CAP
1 la_oenb[119] 0.00188363
2 *646:la_oenb[119] 0.000820348
3 *421:15 0.0042612
4 *421:13 0.00532447
5 *421:13 *423:13 7.8049e-05
6 *421:13 *426:13 0.000846502
7 la_data_out[118] *421:13 0.00572877
8 la_data_out[120] *421:13 0.00188195
9 la_data_out[122] *421:13 0.00372917
10 *646:la_data_in[120] *421:15 0
11 *161:9 *421:15 0
12 *167:13 *421:13 0
13 *420:13 *421:13 0.000320163
*RES
1 la_oenb[119] *421:13 23.3269 
2 *421:13 *421:15 70.1071 
3 *421:15 *646:la_oenb[119] 16.6339 
*END

*D_NET *422 0.0141533
*CONN
*P la_oenb[11] I
*I *646:la_oenb[11] I *D senseedge_top
*CAP
1 la_oenb[11] 0.00215
2 *646:la_oenb[11] 0.000464216
3 *422:13 0.00390377
4 *422:11 0.00558955
5 *646:la_oenb[11] *646:la_oenb[13] 0.000290679
6 *422:13 *432:9 0
7 *422:13 *432:11 0.00175505
8 *166:17 *422:11 0
9 *177:9 *422:13 0
10 *177:13 *422:13 0
11 *294:15 *422:13 0
*RES
1 la_oenb[11] *422:11 14.0494 
2 *422:11 *422:13 85.7321 
3 *422:13 *646:la_oenb[11] 11.1183 
*END

*D_NET *423 0.0271309
*CONN
*P la_oenb[120] I
*I *646:la_oenb[120] I *D senseedge_top
*CAP
1 la_oenb[120] 0.00178088
2 *646:la_oenb[120] 0.00335781
3 *423:13 0.00513869
4 *423:13 *424:15 0.00101217
5 *423:13 *426:13 0.00332616
6 la_data_out[116] *423:13 0.000366919
7 la_data_out[117] *423:13 0.000404831
8 la_data_out[120] *423:13 0.00447263
9 *646:la_data_in[116] *646:la_oenb[120] 0.000404514
10 *646:la_oenb[117] *423:13 0.000100938
11 *162:9 *646:la_oenb[120] 0
12 *162:11 *646:la_oenb[120] 0.00192953
13 *417:9 *646:la_oenb[120] 0
14 *417:13 *646:la_oenb[120] 0
15 *420:13 *423:13 0.00475783
16 *421:13 *423:13 7.8049e-05
*RES
1 la_oenb[120] *423:13 21.4551 
2 *423:13 *646:la_oenb[120] 87.4911 
*END

*D_NET *424 0.0236115
*CONN
*P la_oenb[121] I
*I *646:la_oenb[121] I *D senseedge_top
*CAP
1 la_oenb[121] 0.00326763
2 *646:la_oenb[121] 0.00400573
3 *424:15 0.00727336
4 *424:15 *426:13 0.000316861
5 la_data_out[117] *424:15 0.000731089
6 la_data_out[120] *424:15 0.00260794
7 la_data_out[121] *424:15 0.0017682
8 la_data_out[126] *424:15 0.000221763
9 *646:la_oenb[117] *424:15 0.000100938
10 *163:9 *646:la_oenb[121] 0.000893774
11 *163:13 *646:la_oenb[121] 0
12 *296:11 *424:15 0.001412
13 *418:13 *646:la_oenb[121] 0
14 *423:13 *424:15 0.00101217
*RES
1 la_oenb[121] *424:15 21.817 
2 *424:15 *646:la_oenb[121] 88.7054 
*END

*D_NET *425 0.0250137
*CONN
*P la_oenb[122] I
*I *646:la_oenb[122] I *D senseedge_top
*CAP
1 la_oenb[122] 0.0118217
2 *646:la_oenb[122] 0.0118217
3 *646:la_oenb[122] *430:11 0.000140137
4 *164:7 *646:la_oenb[122] 0.0012302
*RES
1 la_oenb[122] *646:la_oenb[122] 33.6824 
*END

*D_NET *426 0.0276709
*CONN
*P la_oenb[123] I
*I *646:la_oenb[123] I *D senseedge_top
*CAP
1 la_oenb[123] 0.00182012
2 *646:la_oenb[123] 0.00428867
3 *426:13 0.00610879
4 la_data_out[122] *426:13 0.000472443
5 la_data_out[125] *426:13 0.00607183
6 la_data_out[126] *426:13 0.00441949
7 *421:13 *426:13 0.000846502
8 *423:13 *426:13 0.00332616
9 *424:15 *426:13 0.000316861
*RES
1 la_oenb[123] *426:13 23.5342 
2 *426:13 *646:la_oenb[123] 86.8839 
*END

*D_NET *427 0.0184867
*CONN
*P la_oenb[124] I
*I *646:la_oenb[124] I *D senseedge_top
*CAP
1 la_oenb[124] 0.00556977
2 *646:la_oenb[124] 0.00367359
3 *427:13 0.00924336
4 *167:13 *427:13 0
5 *172:13 *427:13 0
*RES
1 la_oenb[124] *427:13 35.6751 
2 *427:13 *646:la_oenb[124] 74.7411 
*END

*D_NET *428 0.0186892
*CONN
*P la_oenb[125] I
*I *646:la_oenb[125] I *D senseedge_top
*CAP
1 la_oenb[125] 4.32496e-05
2 *646:la_oenb[125] 0.00193288
3 *428:13 0.00678251
4 *428:7 0.00736845
5 *428:5 0.00256207
6 *428:13 *429:13 0
7 *299:9 *428:13 0
*RES
1 la_oenb[125] *428:5 0.883929 
2 *428:5 *428:7 51.125 
3 *428:7 *428:13 20.7759 
4 *428:13 *646:la_oenb[125] 37.7054 
*END

*D_NET *429 0.0190854
*CONN
*P la_oenb[126] I
*I *646:la_oenb[126] I *D senseedge_top
*CAP
1 la_oenb[126] 0.0022565
2 *646:la_oenb[126] 0.00224473
3 *429:13 0.00728618
4 *429:9 0.00729795
5 *428:13 *429:13 0
*RES
1 la_oenb[126] *429:9 49.3475 
2 *429:9 *429:13 17.5821 
3 *429:13 *646:la_oenb[126] 43.7768 
*END

*D_NET *430 0.0295442
*CONN
*P la_oenb[127] I
*I *646:la_oenb[127] I *D senseedge_top
*CAP
1 la_oenb[127] 0.00199234
2 *646:la_oenb[127] 0.00442179
3 *430:11 0.00641413
4 *430:11 user_irq[1] 0.00805114
5 la_data_out[122] *646:la_oenb[127] 0
6 la_data_out[127] *430:11 0.00852463
7 *646:la_oenb[122] *430:11 0.000140137
*RES
1 la_oenb[127] *430:11 22.3588 
2 *430:11 *646:la_oenb[127] 88.7054 
*END

*D_NET *431 0.0154294
*CONN
*P la_oenb[12] I
*I *646:la_oenb[12] I *D senseedge_top
*CAP
1 la_oenb[12] 0.00158004
2 *646:la_oenb[12] 0.00147846
3 *431:11 0.00422154
4 *431:9 0.00432313
5 *646:la_oenb[12] *646:la_oenb[13] 0.00259333
6 la_data_out[12] *431:9 0
7 *646:la_data_in[10] *431:11 0.000223753
8 *646:la_oenb[10] *646:la_oenb[12] 0.00100915
9 *283:5 *431:11 0
*RES
1 la_oenb[12] *431:9 31.8482 
2 *431:9 *431:11 58.2679 
3 *431:11 *646:la_oenb[12] 14.2388 
*END

*D_NET *432 0.017587
*CONN
*P la_oenb[13] I
*I *646:la_oenb[13] I *D senseedge_top
*CAP
1 la_oenb[13] 0.0012333
2 *646:la_oenb[13] 0.000986863
3 *432:11 0.00304113
4 *432:9 0.00328756
5 *646:la_oenb[13] *646:la_oenb[14] 0.0024235
6 *646:la_data_in[11] *432:9 0.000764515
7 *646:la_data_in[11] *432:11 0
8 *646:la_oenb[11] *646:la_oenb[13] 0.000290679
9 *646:la_oenb[12] *646:la_oenb[13] 0.00259333
10 *294:15 *432:11 0
11 *306:11 *646:la_oenb[13] 0.00121105
12 *422:13 *432:9 0
13 *422:13 *432:11 0.00175505
*RES
1 la_oenb[13] *432:9 31.8482 
2 *432:9 *432:11 57.6607 
3 *432:11 *646:la_oenb[13] 14.7019 
*END

*D_NET *433 0.0152796
*CONN
*P la_oenb[14] I
*I *646:la_oenb[14] I *D senseedge_top
*CAP
1 la_oenb[14] 0.00155439
2 *646:la_oenb[14] 0.00160767
3 *433:11 0.00440477
4 *433:9 0.00435149
5 *646:la_data_in[12] *433:9 0
6 *646:la_data_in[12] *433:11 0
7 *646:la_data_in[16] *646:la_oenb[14] 0
8 *646:la_oenb[13] *646:la_oenb[14] 0.0024235
9 *303:5 *433:9 0
10 *303:5 *433:11 0
11 *305:15 *646:la_oenb[14] 0
12 *305:17 *433:9 0
13 *306:11 *646:la_oenb[14] 0.000937794
*RES
1 la_oenb[14] *433:9 31.8482 
2 *433:9 *433:11 57.0536 
3 *433:11 *646:la_oenb[14] 15.0928 
*END

*D_NET *434 0.0150488
*CONN
*P la_oenb[15] I
*I *646:la_oenb[15] I *D senseedge_top
*CAP
1 la_oenb[15] 0.00202044
2 *646:la_oenb[15] 0.000352503
3 *434:15 0.00309464
4 *434:13 0.00476258
5 *646:la_oenb[15] *646:la_oenb[17] 5.57024e-05
6 *434:15 *436:13 0.00219813
7 *434:15 *436:15 0.00238771
8 *179:9 *434:13 0
9 *308:11 *646:la_oenb[15] 0.000177122
*RES
1 la_oenb[15] *434:13 15.904 
2 *434:13 *434:15 82.6964 
3 *434:15 *646:la_oenb[15] 10.6859 
*END

*D_NET *435 0.017053
*CONN
*P la_oenb[16] I
*I *646:la_oenb[16] I *D senseedge_top
*CAP
1 la_oenb[16] 4.32496e-05
2 *646:la_oenb[16] 0.00178523
3 *435:7 0.00534273
4 *435:5 0.00360075
5 *646:la_oenb[16] *646:la_oenb[17] 4.5231e-05
6 *646:la_oenb[16] *646:la_oenb[18] 0.000155944
7 *646:la_oenb[16] *437:11 0
8 *646:la_data_in[16] *646:la_oenb[16] 0.00267101
9 *646:la_data_in[17] *646:la_oenb[16] 0
10 *307:15 *646:la_oenb[16] 0.00321685
11 *309:11 *646:la_oenb[16] 0.000191998
*RES
1 la_oenb[16] *435:5 0.883929 
2 *435:5 *435:7 73.1429 
3 *435:7 *646:la_oenb[16] 29.6075 
*END

*D_NET *436 0.0170459
*CONN
*P la_oenb[17] I
*I *646:la_oenb[17] I *D senseedge_top
*CAP
1 la_oenb[17] 0.00105739
2 *646:la_oenb[17] 0.00145535
3 *436:15 0.00322853
4 *436:13 0.00283057
5 *646:la_data_in[16] *646:la_oenb[17] 0.000287218
6 *646:la_data_in[18] *646:la_oenb[17] 0.000990668
7 *646:la_oenb[15] *646:la_oenb[17] 5.57024e-05
8 *646:la_oenb[16] *646:la_oenb[17] 4.5231e-05
9 *309:11 *646:la_oenb[17] 0.00250943
10 *434:15 *436:13 0.00219813
11 *434:15 *436:15 0.00238771
*RES
1 la_oenb[17] *436:13 32.0982 
2 *436:13 *436:15 52.8036 
3 *436:15 *646:la_oenb[17] 18.7663 
*END

*D_NET *437 0.0164624
*CONN
*P la_oenb[18] I
*I *646:la_oenb[18] I *D senseedge_top
*CAP
1 la_oenb[18] 0.0015409
2 *646:la_oenb[18] 0.00127732
3 *437:11 0.00379584
4 *437:9 0.00405942
5 *646:la_oenb[18] *646:la_oenb[19] 0.00177729
6 *646:la_oenb[18] *646:la_oenb[20] 7.06369e-05
7 *646:la_oenb[18] *440:11 5.59239e-05
8 *646:la_data_in[17] *646:la_oenb[18] 0
9 *646:la_data_in[19] *646:la_oenb[18] 0.000177984
10 *646:la_data_in[20] *646:la_oenb[18] 0.000252474
11 *646:la_oenb[16] *646:la_oenb[18] 0.000155944
12 *646:la_oenb[16] *437:11 0
13 *307:15 *437:11 0
14 *309:11 *646:la_oenb[18] 0.00298475
15 *310:11 *646:la_oenb[18] 0.000313958
*RES
1 la_oenb[18] *437:9 31.8482 
2 *437:9 *437:11 51.5893 
3 *437:11 *646:la_oenb[18] 19.8364 
*END

*D_NET *438 0.0162556
*CONN
*P la_oenb[19] I
*I *646:la_oenb[19] I *D senseedge_top
*CAP
1 la_oenb[19] 0.0015409
2 *646:la_oenb[19] 0.00123666
3 *438:11 0.00372722
4 *438:9 0.00403146
5 *646:la_oenb[19] *646:la_oenb[20] 0.000838102
6 *646:la_oenb[19] *441:11 0.000257191
7 *646:la_oenb[18] *646:la_oenb[19] 0.00177729
8 *310:11 *646:la_oenb[19] 0.00284681
*RES
1 la_oenb[19] *438:9 31.8482 
2 *438:9 *438:11 50.9821 
3 *438:11 *646:la_oenb[19] 20.2274 
*END

*D_NET *439 0.017588
*CONN
*P la_oenb[1] I
*I *646:la_oenb[1] I *D senseedge_top
*CAP
1 la_oenb[1] 0.00151957
2 *646:la_oenb[1] 0.000888388
3 *439:15 0.00385767
4 *439:13 0.00448885
5 *646:la_oenb[1] *646:la_oenb[3] 0.00104276
6 *646:la_oenb[1] *646:la_oenb[4] 0.000262217
7 *439:13 *450:11 0.00157483
8 *439:15 *646:la_oenb[3] 0.000620547
9 *439:15 *461:9 0
10 *439:15 *461:11 0.00192729
11 la_data_out[3] *439:15 0
12 *194:11 *439:13 0.000636816
13 *272:11 *439:15 0.000769051
*RES
1 la_oenb[1] *439:13 13.8141 
2 *439:13 *439:15 86.9464 
3 *439:15 *646:la_oenb[1] 12.066 
*END

*D_NET *440 0.0147237
*CONN
*P la_oenb[20] I
*I *646:la_oenb[20] I *D senseedge_top
*CAP
1 la_oenb[20] 0.0015409
2 *646:la_oenb[20] 0.00154793
3 *440:11 0.00410058
4 *440:9 0.00409355
5 *646:la_oenb[20] *442:11 0
6 *646:la_data_in[20] *646:la_oenb[20] 0.00222762
7 *646:la_data_in[21] *646:la_oenb[20] 0
8 *646:la_data_in[22] *646:la_oenb[20] 0.000118829
9 *646:la_oenb[18] *646:la_oenb[20] 7.06369e-05
10 *646:la_oenb[18] *440:11 5.59239e-05
11 *646:la_oenb[19] *646:la_oenb[20] 0.000838102
12 *314:11 *646:la_oenb[20] 0.000129668
*RES
1 la_oenb[20] *440:9 31.8482 
2 *440:9 *440:11 52.1964 
3 *440:11 *646:la_oenb[20] 18.8689 
*END

*D_NET *441 0.015283
*CONN
*P la_oenb[21] I
*I *646:la_oenb[21] I *D senseedge_top
*CAP
1 la_oenb[21] 0.0015409
2 *646:la_oenb[21] 0.000662951
3 *441:11 0.00337222
4 *441:9 0.00425017
5 *646:la_oenb[21] *646:la_oenb[22] 0.00152157
6 *646:la_oenb[21] *646:la_oenb[23] 0
7 *646:la_data_in[20] *441:11 0
8 *646:la_data_in[21] *646:la_oenb[21] 0.000411289
9 *646:la_data_in[23] *646:la_oenb[21] 0.000918826
10 *646:la_oenb[19] *441:11 0.000257191
11 *312:11 *646:la_oenb[21] 0.00102755
12 *313:15 *646:la_oenb[21] 0.00132035
13 *313:17 *441:9 0
*RES
1 la_oenb[21] *441:9 31.8482 
2 *441:9 *441:11 57.0536 
3 *441:11 *646:la_oenb[21] 13.7956 
*END

*D_NET *442 0.0149437
*CONN
*P la_oenb[22] I
*I *646:la_oenb[22] I *D senseedge_top
*CAP
1 la_oenb[22] 0.0015409
2 *646:la_oenb[22] 0.000711426
3 *442:11 0.00347255
4 *442:9 0.00430203
5 *646:la_oenb[22] *444:11 0
6 *646:la_data_in[21] *646:la_oenb[22] 0.000400038
7 *646:la_data_in[23] *646:la_oenb[22] 0.000961096
8 *646:la_oenb[20] *442:11 0
9 *646:la_oenb[21] *646:la_oenb[22] 0.00152157
10 *315:11 *646:la_oenb[22] 0.00198362
11 *316:14 *646:la_oenb[22] 5.04362e-05
*RES
1 la_oenb[22] *442:9 31.8482 
2 *442:9 *442:11 56.4464 
3 *442:11 *646:la_oenb[22] 14.2586 
*END

*D_NET *443 0.0132123
*CONN
*P la_oenb[23] I
*I *646:la_oenb[23] I *D senseedge_top
*CAP
1 la_oenb[23] 4.32496e-05
2 *646:la_oenb[23] 0.001857
3 *443:7 0.00539825
4 *443:5 0.00358449
5 *646:la_data_in[22] *646:la_oenb[23] 0
6 *646:la_data_in[23] *646:la_oenb[23] 0.00049229
7 *646:la_oenb[21] *646:la_oenb[23] 0
8 *188:9 *443:7 0
9 *316:12 *646:la_oenb[23] 0.00183706
*RES
1 la_oenb[23] *443:5 0.883929 
2 *443:5 *443:7 73.1429 
3 *443:7 *646:la_oenb[23] 27.9477 
*END

*D_NET *444 0.0140738
*CONN
*P la_oenb[24] I
*I *646:la_oenb[24] I *D senseedge_top
*CAP
1 la_oenb[24] 0.0015409
2 *646:la_oenb[24] 0.000660118
3 *444:11 0.00344168
4 *444:9 0.00432246
5 *646:la_oenb[24] *646:la_oenb[25] 0.00029854
6 *646:la_data_in[23] *646:la_oenb[24] 0.000121515
7 *646:la_data_in[25] *646:la_oenb[24] 0.000428424
8 *646:la_data_in[26] *646:la_oenb[24] 0.000522841
9 *646:la_oenb[22] *444:11 0
10 *315:11 *646:la_oenb[24] 0.000321942
11 *316:12 *646:la_oenb[24] 0.000649439
12 *317:11 *646:la_oenb[24] 0.00171663
13 *318:18 *646:la_oenb[24] 4.93125e-05
*RES
1 la_oenb[24] *444:9 31.8482 
2 *444:9 *444:11 57.0536 
3 *444:11 *646:la_oenb[24] 13.2191 
*END

*D_NET *445 0.0146891
*CONN
*P la_oenb[25] I
*I *646:la_oenb[25] I *D senseedge_top
*CAP
1 la_oenb[25] 4.32496e-05
2 *646:la_oenb[25] 0.00152427
3 *445:7 0.00506552
4 *445:5 0.00358449
5 *646:la_data_in[24] *646:la_oenb[25] 0.000591494
6 *646:la_data_in[25] *646:la_oenb[25] 0.000429243
7 *646:la_data_in[26] *646:la_oenb[25] 0.000449548
8 *646:la_data_in[27] *646:la_oenb[25] 0.00041134
9 *646:la_oenb[24] *646:la_oenb[25] 0.00029854
10 *316:12 *646:la_oenb[25] 0.000529689
11 *318:16 *646:la_oenb[25] 0.00176176
*RES
1 la_oenb[25] *445:5 0.883929 
2 *445:5 *445:7 73.1429 
3 *445:7 *646:la_oenb[25] 27.1046 
*END

*D_NET *446 0.0137829
*CONN
*P la_oenb[26] I
*I *646:la_oenb[26] I *D senseedge_top
*CAP
1 la_oenb[26] 0.0015409
2 *646:la_oenb[26] 0.00110499
3 *446:11 0.00381002
4 *446:9 0.00424594
5 *646:la_oenb[26] *646:la_oenb[27] 0.000543621
6 *646:la_data_in[26] *646:la_oenb[26] 0.000349109
7 *646:la_data_in[27] *646:la_oenb[26] 0.000198865
8 *192:11 *646:la_oenb[26] 4.6025e-06
9 *317:11 *646:la_oenb[26] 0.00044982
10 *319:11 *646:la_oenb[26] 0.00153503
11 *320:16 *646:la_oenb[26] 0
*RES
1 la_oenb[26] *446:9 31.8482 
2 *446:9 *446:11 55.8393 
3 *446:11 *646:la_oenb[26] 20.6584 
*END

*D_NET *447 0.013205
*CONN
*P la_oenb[27] I
*I *646:la_oenb[27] I *D senseedge_top
*CAP
1 la_oenb[27] 0.0015409
2 *646:la_oenb[27] 0.00107719
3 *447:11 0.00378222
4 *447:9 0.00424594
5 *646:la_data_in[28] *646:la_oenb[27] 0.00194888
6 *646:la_oenb[26] *646:la_oenb[27] 0.000543621
7 *193:11 *646:la_oenb[27] 3.03519e-05
8 *319:11 *646:la_oenb[27] 3.5867e-05
*RES
1 la_oenb[27] *447:9 31.8482 
2 *447:9 *447:11 55.8393 
3 *447:11 *646:la_oenb[27] 13.9289 
*END

*D_NET *448 0.0137665
*CONN
*P la_oenb[28] I
*I *646:la_oenb[28] I *D senseedge_top
*CAP
1 la_oenb[28] 0.0015409
2 *646:la_oenb[28] 0.000496873
3 *448:11 0.00331545
4 *448:9 0.00435948
5 *646:la_oenb[28] *646:la_oenb[29] 0.000477706
6 *646:la_data_in[28] *646:la_oenb[28] 0.000226427
7 *646:la_data_in[29] *646:la_oenb[28] 0.00181772
8 *319:11 *646:la_oenb[28] 0.000215317
9 *320:16 *646:la_oenb[28] 0.00131667
10 *320:18 *448:9 0
*RES
1 la_oenb[28] *448:9 31.8482 
2 *448:9 *448:11 57.6607 
3 *448:11 *646:la_oenb[28] 11.8913 
*END

*D_NET *449 0.0122123
*CONN
*P la_oenb[29] I
*I *646:la_oenb[29] I *D senseedge_top
*CAP
1 la_oenb[29] 0.0015409
2 *646:la_oenb[29] 0.000885087
3 *449:11 0.00373335
4 *449:9 0.00438917
5 *646:la_oenb[29] *646:la_oenb[30] 0.000543621
6 *646:la_data_in[28] *449:11 0
7 *646:la_data_in[29] *646:la_oenb[29] 0.000130759
8 *646:la_data_in[30] *646:la_oenb[29] 4.06573e-06
9 *646:la_oenb[28] *646:la_oenb[29] 0.000477706
10 *320:16 *646:la_oenb[29] 0.000121515
11 *321:19 *646:la_oenb[29] 0.000386157
*RES
1 la_oenb[29] *449:9 31.8482 
2 *449:9 *449:11 58.2679 
3 *449:11 *646:la_oenb[29] 10.6709 
*END

*D_NET *450 0.0159273
*CONN
*P la_oenb[2] I
*I *646:la_oenb[2] I *D senseedge_top
*CAP
1 la_oenb[2] 0.00186755
2 *646:la_oenb[2] 0.000801869
3 *450:13 0.00498167
4 *450:11 0.00604735
5 *646:la_oenb[2] *646:la_oenb[4] 0.000582437
6 *450:13 *472:9 0
7 *450:13 *472:11 0
8 *646:la_data_in[2] *646:la_oenb[2] 7.15738e-05
9 *646:la_data_in[2] *450:13 0
10 *646:la_data_in[5] *646:la_oenb[2] 0
11 *646:la_data_in[5] *450:13 0
12 *227:7 *450:13 0
13 *439:13 *450:11 0.00157483
*RES
1 la_oenb[2] *450:11 14.0711 
2 *450:11 *450:13 85.125 
3 *450:13 *646:la_oenb[2] 12.4155 
*END

*D_NET *451 0.0126195
*CONN
*P la_oenb[30] I
*I *646:la_oenb[30] I *D senseedge_top
*CAP
1 la_oenb[30] 4.32496e-05
2 *646:la_oenb[30] 0.00151908
3 *451:7 0.00506033
4 *451:5 0.00358449
5 *646:la_data_in[30] *646:la_oenb[30] 0.000231359
6 *646:la_data_in[31] *646:la_oenb[30] 0.00157941
7 *646:la_oenb[29] *646:la_oenb[30] 0.000543621
8 *196:9 *451:7 0
9 *321:19 *646:la_oenb[30] 5.7986e-05
*RES
1 la_oenb[30] *451:5 0.883929 
2 *451:5 *451:7 73.1429 
3 *451:7 *646:la_oenb[30] 27.0131 
*END

*D_NET *452 0.0128488
*CONN
*P la_oenb[31] I
*I *646:la_oenb[31] I *D senseedge_top
*CAP
1 la_oenb[31] 0.00154107
2 *646:la_oenb[31] 0.000726178
3 *452:11 0.00345181
4 *452:9 0.0042667
5 *646:la_oenb[31] *646:la_oenb[32] 0.000309118
6 *646:la_data_in[32] *646:la_oenb[31] 9.6155e-05
7 *646:la_data_in[33] *646:la_oenb[31] 0
8 *323:11 *452:11 2.04095e-05
9 *324:11 *646:la_oenb[31] 0.00153555
10 *325:11 *646:la_oenb[31] 0.000901848
*RES
1 la_oenb[31] *452:9 31.8482 
2 *452:9 *452:11 56.4464 
3 *452:11 *646:la_oenb[31] 12.6011 
*END

*D_NET *453 0.0127317
*CONN
*P la_oenb[32] I
*I *646:la_oenb[32] I *D senseedge_top
*CAP
1 la_oenb[32] 0.0015409
2 *646:la_oenb[32] 0.000377351
3 *453:11 0.00315808
4 *453:9 0.00432163
5 *646:la_data_in[32] *646:la_oenb[32] 0.000344434
6 *646:la_data_in[33] *646:la_oenb[32] 0.00138435
7 *646:la_oenb[31] *646:la_oenb[32] 0.000309118
8 *325:11 *646:la_oenb[32] 0.000521146
9 *326:11 *646:la_oenb[32] 0.000774644
*RES
1 la_oenb[32] *453:9 31.8482 
2 *453:9 *453:11 57.0536 
3 *453:11 *646:la_oenb[32] 11.7777 
*END

*D_NET *454 0.011747
*CONN
*P la_oenb[33] I
*I *646:la_oenb[33] I *D senseedge_top
*CAP
1 la_oenb[33] 0.0015409
2 *646:la_oenb[33] 0.000756314
3 *454:11 0.00346135
4 *454:9 0.00424594
5 *646:la_oenb[33] *646:la_oenb[34] 7.17259e-05
6 *646:la_oenb[33] *455:11 5.59239e-05
7 *646:la_data_in[34] *646:la_oenb[33] 0.000280872
8 *326:11 *646:la_oenb[33] 0.00133397
*RES
1 la_oenb[33] *454:9 31.8482 
2 *454:9 *454:11 55.8393 
3 *454:11 *646:la_oenb[33] 12.8479 
*END

*D_NET *455 0.0118842
*CONN
*P la_oenb[34] I
*I *646:la_oenb[34] I *D senseedge_top
*CAP
1 la_oenb[34] 0.0015409
2 *646:la_oenb[34] 0.000480686
3 *455:11 0.00320996
4 *455:9 0.00427018
5 *646:la_oenb[34] *456:11 3.04937e-05
6 *646:la_data_in[34] *646:la_oenb[34] 0.000633935
7 *646:la_data_in[35] *646:la_oenb[34] 0.00105605
8 *646:la_oenb[33] *646:la_oenb[34] 7.17259e-05
9 *646:la_oenb[33] *455:11 5.59239e-05
10 *327:11 *646:la_oenb[34] 0.000326674
11 *328:15 *646:la_oenb[34] 0.000207664
*RES
1 la_oenb[34] *455:9 31.8482 
2 *455:9 *455:11 56.4464 
3 *455:11 *646:la_oenb[34] 12.0245 
*END

*D_NET *456 0.0115679
*CONN
*P la_oenb[35] I
*I *646:la_oenb[35] I *D senseedge_top
*CAP
1 la_oenb[35] 0.0015409
2 *646:la_oenb[35] 0.000527813
3 *456:11 0.00328951
4 *456:9 0.0043026
5 *646:la_oenb[35] *457:11 0
6 *646:la_data_in[35] *646:la_oenb[35] 0.000282158
7 *646:la_data_in[35] *456:11 0
8 *646:la_data_in[36] *646:la_oenb[35] 0.00103041
9 *646:la_oenb[34] *456:11 3.04937e-05
10 *328:15 *646:la_oenb[35] 0.000564006
11 *328:17 *456:9 0
*RES
1 la_oenb[35] *456:9 31.8482 
2 *456:9 *456:11 57.0536 
3 *456:11 *646:la_oenb[35] 11.2012 
*END

*D_NET *457 0.0109566
*CONN
*P la_oenb[36] I
*I *646:la_oenb[36] I *D senseedge_top
*CAP
1 la_oenb[36] 0.0015409
2 *646:la_oenb[36] 0.000667553
3 *457:11 0.00347797
4 *457:9 0.00435132
5 *646:la_data_in[36] *646:la_oenb[36] 0.00023163
6 *646:la_data_in[36] *457:11 0
7 *646:la_data_in[37] *646:la_oenb[36] 0.000300035
8 *646:la_oenb[35] *457:11 0
9 *329:11 *646:la_oenb[36] 7.804e-05
10 *330:11 *646:la_oenb[36] 0.000309118
*RES
1 la_oenb[36] *457:9 31.8482 
2 *457:9 *457:11 57.6607 
3 *457:11 *646:la_oenb[36] 10.4499 
*END

*D_NET *458 0.0105294
*CONN
*P la_oenb[37] I
*I *646:la_oenb[37] I *D senseedge_top
*CAP
1 la_oenb[37] 4.32496e-05
2 *646:la_oenb[37] 0.00168019
3 *458:7 0.00522143
4 *458:5 0.00358449
5 *646:la_oenb[37] *459:11 0
6 *646:la_data_in[38] *646:la_oenb[37] 0
7 *203:9 *458:7 0
8 *331:13 *646:la_oenb[37] 0
*RES
1 la_oenb[37] *458:5 0.883929 
2 *458:5 *458:7 73.1429 
3 *458:7 *646:la_oenb[37] 25.7159 
*END

*D_NET *459 0.0112153
*CONN
*P la_oenb[38] I
*I *646:la_oenb[38] I *D senseedge_top
*CAP
1 la_oenb[38] 0.0015409
2 *646:la_oenb[38] 0.000548306
3 *459:11 0.0032839
4 *459:9 0.00427649
5 *646:la_data_in[38] *646:la_oenb[38] 0.000165535
6 *646:la_data_in[38] *459:11 1.65923e-05
7 *646:la_data_in[39] *646:la_oenb[38] 0.000655825
8 *646:la_oenb[37] *459:11 0
9 *331:11 *646:la_oenb[38] 0.000727744
*RES
1 la_oenb[38] *459:9 31.8482 
2 *459:9 *459:11 56.4464 
3 *459:11 *646:la_oenb[38] 11.3039 
*END

*D_NET *460 0.0108288
*CONN
*P la_oenb[39] I
*I *646:la_oenb[39] I *D senseedge_top
*CAP
1 la_oenb[39] 0.0015409
2 *646:la_oenb[39] 0.000768109
3 *460:11 0.00321182
4 *460:9 0.00398461
5 *646:la_data_in[40] *646:la_oenb[39] 0.000523546
6 *332:11 *646:la_oenb[39] 0.00030621
7 *334:13 *646:la_oenb[39] 0.000493587
*RES
1 la_oenb[39] *460:9 31.8482 
2 *460:9 *460:11 50.375 
3 *460:11 *646:la_oenb[39] 17.1591 
*END

*D_NET *461 0.0176073
*CONN
*P la_oenb[3] I
*I *646:la_oenb[3] I *D senseedge_top
*CAP
1 la_oenb[3] 0.000646486
2 *646:la_oenb[3] 0.00239354
3 *461:11 0.00457043
4 *461:9 0.00282338
5 *646:la_oenb[3] *646:la_oenb[4] 0.00358285
6 *646:la_oenb[0] *646:la_oenb[3] 0
7 *646:la_oenb[0] *461:11 0
8 *646:la_oenb[1] *646:la_oenb[3] 0.00104276
9 *216:7 *461:9 0
10 *216:7 *461:11 0
11 *272:11 *646:la_oenb[3] 0
12 *439:15 *646:la_oenb[3] 0.000620547
13 *439:15 *461:9 0
14 *439:15 *461:11 0.00192729
*RES
1 la_oenb[3] *461:9 12.9554 
2 *461:9 *461:11 61.7321 
3 *461:11 *646:la_oenb[3] 31.5749 
*END

*D_NET *462 0.0102208
*CONN
*P la_oenb[40] I
*I *646:la_oenb[40] I *D senseedge_top
*CAP
1 la_oenb[40] 0.0015409
2 *646:la_oenb[40] 0.000579642
3 *462:11 0.0032103
4 *462:9 0.00417156
5 *646:la_data_in[40] *462:11 0.000221648
6 *334:11 *646:la_oenb[40] 0.00049672
*RES
1 la_oenb[40] *462:9 31.8482 
2 *462:9 *462:11 55.8393 
3 *462:11 *646:la_oenb[40] 11.5507 
*END

*D_NET *463 0.0101983
*CONN
*P la_oenb[41] I
*I *646:la_oenb[41] I *D senseedge_top
*CAP
1 la_oenb[41] 0.0015409
2 *646:la_oenb[41] 0.000724496
3 *463:11 0.0032349
4 *463:9 0.0040513
5 *646:la_data_in[42] *646:la_oenb[41] 0.000301786
6 *335:11 *646:la_oenb[41] 0.000344962
*RES
1 la_oenb[41] *463:9 31.8482 
2 *463:9 *463:11 51.5893 
3 *463:11 *646:la_oenb[41] 15.5845 
*END

*D_NET *464 0.0100651
*CONN
*P la_oenb[42] I
*I *646:la_oenb[42] I *D senseedge_top
*CAP
1 la_oenb[42] 0.00156631
2 *646:la_oenb[42] 0.000794908
3 *464:11 0.00328473
4 *464:9 0.00405614
5 *646:la_data_in[43] *646:la_oenb[42] 0.000106999
6 *209:11 *646:la_oenb[42] 0
7 *336:15 *646:la_oenb[42] 0.000256033
8 *337:13 *646:la_oenb[42] 0
*RES
1 la_oenb[42] *464:9 31.8482 
2 *464:9 *464:11 50.375 
3 *464:11 *646:la_oenb[42] 16.6546 
*END

*D_NET *465 0.00968416
*CONN
*P la_oenb[43] I
*I *646:la_oenb[43] I *D senseedge_top
*CAP
1 la_oenb[43] 0.0015409
2 *646:la_oenb[43] 0.000692544
3 *465:11 0.00319309
4 *465:9 0.00404145
5 *646:la_data_in[44] *646:la_oenb[43] 7.30214e-05
6 *337:11 *646:la_oenb[43] 0.000116197
7 *337:11 *465:11 2.69575e-05
*RES
1 la_oenb[43] *465:9 31.8482 
2 *465:9 *465:11 51.5893 
3 *465:11 *646:la_oenb[43] 15.2241 
*END

*D_NET *466 0.0095289
*CONN
*P la_oenb[44] I
*I *646:la_oenb[44] I *D senseedge_top
*CAP
1 la_oenb[44] 0.00164986
2 *646:la_oenb[44] 0.00210852
3 *466:9 0.00375838
4 *646:la_data_in[45] *646:la_oenb[44] 0.000640696
5 *211:7 *646:la_oenb[44] 0.00137145
6 *211:7 *466:9 0
*RES
1 la_oenb[44] *466:9 34.1161 
2 *466:9 *646:la_oenb[44] 58.8125 
*END

*D_NET *467 0.00929026
*CONN
*P la_oenb[45] I
*I *646:la_oenb[45] I *D senseedge_top
*CAP
1 la_oenb[45] 0.0015409
2 *646:la_oenb[45] 0.000631037
3 *467:11 0.00308578
4 *467:9 0.00399564
5 *339:11 *467:11 3.69008e-05
*RES
1 la_oenb[45] *467:9 31.8482 
2 *467:9 *467:11 50.9821 
3 *467:11 *646:la_oenb[45] 15.471 
*END

*D_NET *468 0.00879447
*CONN
*P la_oenb[46] I
*I *646:la_oenb[46] I *D senseedge_top
*CAP
1 la_oenb[46] 0.0015518
2 *646:la_oenb[46] 0.00284543
3 *468:9 0.00439724
*RES
1 la_oenb[46] *468:9 32.0625 
2 *468:9 *646:la_oenb[46] 58.8125 
*END

*D_NET *469 0.00870174
*CONN
*P la_oenb[47] I
*I *646:la_oenb[47] I *D senseedge_top
*CAP
1 la_oenb[47] 8.34412e-05
2 *646:la_oenb[47] 0.00426743
3 *469:5 0.00435087
*RES
1 la_oenb[47] *469:5 1.70536 
2 *469:5 *646:la_oenb[47] 88.0982 
*END

*D_NET *470 0.00873469
*CONN
*P la_oenb[48] I
*I *646:la_oenb[48] I *D senseedge_top
*CAP
1 la_oenb[48] 4.32496e-05
2 *646:la_oenb[48] 0.000782853
3 *470:7 0.0043241
4 *470:5 0.00358449
5 *215:9 *470:7 0
*RES
1 la_oenb[48] *470:5 0.883929 
2 *470:5 *470:7 73.1429 
3 *470:7 *646:la_oenb[48] 16.2232 
*END

*D_NET *471 0.00873331
*CONN
*P la_oenb[49] I
*I *646:la_oenb[49] I *D senseedge_top
*CAP
1 la_oenb[49] 0.00152122
2 *646:la_oenb[49] 0.00284543
3 *471:9 0.00436666
*RES
1 la_oenb[49] *471:9 31.4375 
2 *471:9 *646:la_oenb[49] 58.8125 
*END

*D_NET *472 0.0176509
*CONN
*P la_oenb[4] I
*I *646:la_oenb[4] I *D senseedge_top
*CAP
1 la_oenb[4] 0.00152422
2 *646:la_oenb[4] 0.00178286
3 *472:11 0.00462752
4 *472:9 0.00436887
5 *646:la_oenb[4] *646:la_oenb[6] 0.000915346
6 *646:la_oenb[4] *505:11 4.6025e-06
7 la_data_out[4] *472:9 0
8 la_data_out[4] *472:11 0
9 *646:la_data_in[5] *646:la_oenb[4] 0
10 *646:la_oenb[1] *646:la_oenb[4] 0.000262217
11 *646:la_oenb[2] *646:la_oenb[4] 0.000582437
12 *646:la_oenb[3] *646:la_oenb[4] 0.00358285
13 *311:5 *472:11 0
14 *450:13 *472:9 0
15 *450:13 *472:11 0
*RES
1 la_oenb[4] *472:9 31.2411 
2 *472:9 *472:11 57.6607 
3 *472:11 *646:la_oenb[4] 16.2873 
*END

*D_NET *473 0.00900879
*CONN
*P la_oenb[50] I
*I *646:la_oenb[50] I *D senseedge_top
*CAP
1 la_oenb[50] 8.47886e-05
2 *646:la_oenb[50] 0.00441961
3 *473:5 0.0045044
*RES
1 la_oenb[50] *473:5 1.70536 
2 *473:5 *646:la_oenb[50] 88.0982 
*END

*D_NET *474 0.00905791
*CONN
*P la_oenb[51] I
*I *646:la_oenb[51] I *D senseedge_top
*CAP
1 la_oenb[51] 8.55523e-05
2 *646:la_oenb[51] 0.000832011
3 *474:7 0.0044434
4 *474:5 0.00369694
5 la_data_out[51] *474:7 0
*RES
1 la_oenb[51] *474:5 1.70536 
2 *474:5 *474:7 72.5357 
3 *474:7 *646:la_oenb[51] 16.6339 
*END

*D_NET *475 0.00892104
*CONN
*P la_oenb[52] I
*I *646:la_oenb[52] I *D senseedge_top
*CAP
1 la_oenb[52] 0.00101626
2 *646:la_oenb[52] 0.00344426
3 *475:9 0.00446052
4 *347:9 *646:la_oenb[52] 0
*RES
1 la_oenb[52] *475:9 21.0089 
2 *475:9 *646:la_oenb[52] 71.0982 
*END

*D_NET *476 0.00919828
*CONN
*P la_oenb[53] I
*I *646:la_oenb[53] I *D senseedge_top
*CAP
1 la_oenb[53] 0.000744658
2 *646:la_oenb[53] 0.00385448
3 *476:13 0.00459914
*RES
1 la_oenb[53] *476:13 17.7037 
2 *476:13 *646:la_oenb[53] 79.5982 
*END

*D_NET *477 0.00974292
*CONN
*P la_oenb[54] I
*I *646:la_oenb[54] I *D senseedge_top
*CAP
1 la_oenb[54] 0.00183173
2 *646:la_oenb[54] 0.00256658
3 *477:13 0.00439831
4 *646:la_data_in[55] *477:13 0.000946306
*RES
1 la_oenb[54] *477:13 44.2937 
2 *477:13 *646:la_oenb[54] 52.8839 
*END

*D_NET *478 0.00949341
*CONN
*P la_oenb[55] I
*I *646:la_oenb[55] I *D senseedge_top
*CAP
1 la_oenb[55] 0.00111684
2 *646:la_oenb[55] 0.0035654
3 *478:13 0.00468224
4 *646:la_data_in[56] *478:13 5.59239e-05
5 *223:13 *478:13 7.30149e-05
*RES
1 la_oenb[55] *478:13 24.2057 
2 *478:13 *646:la_oenb[55] 73.5268 
*END

*D_NET *479 0.00973823
*CONN
*P la_oenb[56] I
*I *646:la_oenb[56] I *D senseedge_top
*CAP
1 la_oenb[56] 0.000864087
2 *646:la_oenb[56] 0.00372062
3 *479:13 0.0045847
4 la_data_out[56] *646:la_oenb[56] 0.000536274
5 *223:13 *646:la_oenb[56] 0
6 *224:13 *479:13 3.25553e-05
7 *352:5 *479:13 0
*RES
1 la_oenb[56] *479:13 16.4569 
2 *479:13 *646:la_oenb[56] 81.4196 
*END

*D_NET *480 0.00988452
*CONN
*P la_oenb[57] I
*I *646:la_oenb[57] I *D senseedge_top
*CAP
1 la_oenb[57] 0.0014931
2 *646:la_oenb[57] 0.00344916
3 *480:13 0.00494226
4 *646:la_data_in[58] *480:13 0
*RES
1 la_oenb[57] *480:13 26.6559 
2 *480:13 *646:la_oenb[57] 71.0982 
*END

*D_NET *481 0.0098988
*CONN
*P la_oenb[58] I
*I *646:la_oenb[58] I *D senseedge_top
*CAP
1 la_oenb[58] 0.00181802
2 *646:la_oenb[58] 0.00313137
3 *481:13 0.0049494
4 la_data_out[58] *646:la_oenb[58] 0
5 *646:la_data_in[59] *481:13 0
*RES
1 la_oenb[58] *481:13 33.4786 
2 *481:13 *646:la_oenb[58] 64.4196 
*END

*D_NET *482 0.0108596
*CONN
*P la_oenb[59] I
*I *646:la_oenb[59] I *D senseedge_top
*CAP
1 la_oenb[59] 0.00121532
2 *646:la_oenb[59] 0.00348699
3 *482:13 0.00470231
4 *228:13 *482:13 0.000520432
5 *354:15 *482:13 0
6 *356:5 *482:13 0.000934534
*RES
1 la_oenb[59] *482:13 26.7477 
2 *482:13 *646:la_oenb[59] 71.7054 
*END

*D_NET *483 0.0152906
*CONN
*P la_oenb[5] I
*I *646:la_oenb[5] I *D senseedge_top
*CAP
1 la_oenb[5] 0.00171622
2 *646:la_oenb[5] 0.00128593
3 *483:15 0.00500631
4 *483:13 0.0054366
5 *483:13 *494:11 0
6 *483:15 *505:9 0
7 *483:15 *505:11 0
8 la_data_out[3] *483:13 0.000220432
9 la_data_out[7] *483:15 0
10 *646:la_data_in[5] *646:la_oenb[5] 0.000371738
11 *646:la_data_in[6] *646:la_oenb[5] 0
12 *646:la_data_in[7] *646:la_oenb[5] 0.000482221
13 *238:9 *483:13 0
14 *249:13 *483:13 0.000771157
15 *344:5 *483:15 0
*RES
1 la_oenb[5] *483:13 17.4372 
2 *483:13 *483:15 76.0179 
3 *483:15 *646:la_oenb[5] 17.705 
*END

*D_NET *484 0.01093
*CONN
*P la_oenb[60] I
*I *646:la_oenb[60] I *D senseedge_top
*CAP
1 la_oenb[60] 0.000654496
2 *646:la_oenb[60] 0.00165429
3 *484:15 0.00438666
4 *484:9 0.00338687
5 *484:15 *646:la_oenb[61] 0
6 *646:la_data_in[61] *484:15 0.000847651
7 *229:7 *484:9 0
8 *357:5 *484:9 0
9 *357:5 *484:15 0
*RES
1 la_oenb[60] *484:9 12.9554 
2 *484:9 *484:15 48.9761 
3 *484:15 *646:la_oenb[60] 37.4725 
*END

*D_NET *485 0.0107496
*CONN
*P la_oenb[61] I
*I *646:la_oenb[61] I *D senseedge_top
*CAP
1 la_oenb[61] 0.00148576
2 *646:la_oenb[61] 0.00348869
3 *485:13 0.00497445
4 la_data_out[62] *485:13 0
5 *229:7 *646:la_oenb[61] 0
6 *230:13 *485:13 0.000800652
7 *484:15 *646:la_oenb[61] 0
*RES
1 la_oenb[61] *485:13 27.3766 
2 *485:13 *646:la_oenb[61] 71.0982 
*END

*D_NET *486 0.0103276
*CONN
*P la_oenb[62] I
*I *646:la_oenb[62] I *D senseedge_top
*CAP
1 la_oenb[62] 4.40123e-05
2 *646:la_oenb[62] 0.00266085
3 *486:7 0.00511979
4 *486:5 0.00250296
5 *486:7 *646:la_oenb[63] 0
*RES
1 la_oenb[62] *486:5 0.883929 
2 *486:5 *486:7 50.5179 
3 *486:7 *646:la_oenb[62] 46.8785 
*END

*D_NET *487 0.0114359
*CONN
*P la_oenb[63] I
*I *646:la_oenb[63] I *D senseedge_top
*CAP
1 la_oenb[63] 0.00143523
2 *646:la_oenb[63] 0.00379459
3 *487:13 0.00522981
4 *231:13 *487:13 0
5 *232:13 *487:13 0.000976314
6 *359:13 *487:13 0
7 *486:7 *646:la_oenb[63] 0
*RES
1 la_oenb[63] *487:13 23.2184 
2 *487:13 *646:la_oenb[63] 75.9554 
*END

*D_NET *488 0.0105646
*CONN
*P la_oenb[64] I
*I *646:la_oenb[64] I *D senseedge_top
*CAP
1 la_oenb[64] 0.00180344
2 *646:la_oenb[64] 0.00347886
3 *488:13 0.0052823
*RES
1 la_oenb[64] *488:13 27.346 
2 *488:13 *646:la_oenb[64] 71.7054 
*END

*D_NET *489 0.0105702
*CONN
*P la_oenb[65] I
*I *646:la_oenb[65] I *D senseedge_top
*CAP
1 la_oenb[65] 0.00200834
2 *646:la_oenb[65] 0.00312238
3 *489:13 0.00513072
4 *489:13 *646:la_oenb[66] 0.000308788
5 *646:la_data_in[67] *489:13 0
*RES
1 la_oenb[65] *489:13 34.7758 
2 *489:13 *646:la_oenb[65] 64.4196 
*END

*D_NET *490 0.0112628
*CONN
*P la_oenb[66] I
*I *646:la_oenb[66] I *D senseedge_top
*CAP
1 la_oenb[66] 0.00163035
2 *646:la_oenb[66] 0.00346736
3 *490:13 0.00509771
4 *490:13 *491:13 5.20215e-05
5 *646:la_data_in[68] *490:13 0
6 *235:13 *490:13 0.000706538
7 *489:13 *646:la_oenb[66] 0.000308788
*RES
1 la_oenb[66] *490:13 25.6164 
2 *490:13 *646:la_oenb[66] 74.1339 
*END

*D_NET *491 0.0117082
*CONN
*P la_oenb[67] I
*I *646:la_oenb[67] I *D senseedge_top
*CAP
1 la_oenb[67] 0.00214333
2 *646:la_oenb[67] 0.00347886
3 *491:13 0.00562219
4 la_data_out[68] *491:13 0.00023996
5 la_data_out[69] *491:13 0
6 *646:la_data_in[69] *491:13 0.000153396
7 *235:13 *491:13 0
8 *236:13 *491:13 0
9 *237:13 *491:13 1.84229e-05
10 *490:13 *491:13 5.20215e-05
*RES
1 la_oenb[67] *491:13 28.4072 
2 *491:13 *646:la_oenb[67] 71.7054 
*END

*D_NET *492 0.0113487
*CONN
*P la_oenb[68] I
*I *646:la_oenb[68] I *D senseedge_top
*CAP
1 la_oenb[68] 0.00159653
2 *646:la_oenb[68] 0.00390412
3 *492:13 0.00550065
4 *492:13 *493:13 0
5 *492:13 *493:15 0
6 la_data_out[68] *492:13 0
7 la_data_out[69] *492:13 0
8 *646:la_data_in[70] *492:13 0.000347392
9 *236:13 *492:13 0
*RES
1 la_oenb[68] *492:13 19.5666 
2 *492:13 *646:la_oenb[68] 80.2054 
*END

*D_NET *493 0.0123663
*CONN
*P la_oenb[69] I
*I *646:la_oenb[69] I *D senseedge_top
*CAP
1 la_oenb[69] 0.00109625
2 *646:la_oenb[69] 0.00082353
3 *493:15 0.0041494
4 *493:13 0.00442212
5 la_data_out[68] *493:15 0
6 la_data_out[69] *493:13 0.000153492
7 *646:la_data_in[70] *493:15 0
8 *239:13 *493:13 0.00172148
9 *492:13 *493:13 0
10 *492:13 *493:15 0
*RES
1 la_oenb[69] *493:13 15.8517 
2 *493:13 *493:15 68.2857 
3 *493:15 *646:la_oenb[69] 17.0446 
*END

*D_NET *494 0.0170258
*CONN
*P la_oenb[6] I
*I *646:la_oenb[6] I *D senseedge_top
*CAP
1 la_oenb[6] 0.000508931
2 *646:la_oenb[6] 0.00153176
3 *494:13 0.00577948
4 *494:11 0.00475665
5 *646:la_oenb[6] *646:la_oenb[7] 0.00322881
6 *646:la_data_in[4] *494:13 0
7 *646:la_oenb[4] *646:la_oenb[6] 0.000915346
8 *249:13 *494:13 0.000304867
9 *344:5 *494:13 0
10 *483:13 *494:11 0
*RES
1 la_oenb[6] *494:11 9.50922 
2 *494:11 *494:13 87.5536 
3 *494:13 *646:la_oenb[6] 14.0947 
*END

*D_NET *495 0.0114424
*CONN
*P la_oenb[70] I
*I *646:la_oenb[70] I *D senseedge_top
*CAP
1 la_oenb[70] 0.00251462
2 *646:la_oenb[70] 0.00312238
3 *495:13 0.005637
4 *241:13 *495:13 0.000168408
5 *369:5 *495:13 0
*RES
1 la_oenb[70] *495:13 36.0513 
2 *495:13 *646:la_oenb[70] 64.4196 
*END

*D_NET *496 0.011421
*CONN
*P la_oenb[71] I
*I *646:la_oenb[71] I *D senseedge_top
*CAP
1 la_oenb[71] 0.00180172
2 *646:la_oenb[71] 0.00378443
3 *496:13 0.00558615
4 la_data_out[71] *496:13 0
5 *240:13 *496:13 0.000248707
6 *370:5 *496:13 0
*RES
1 la_oenb[71] *496:13 22.4997 
2 *496:13 *646:la_oenb[71] 77.7768 
*END

*D_NET *497 0.0118615
*CONN
*P la_oenb[72] I
*I *646:la_oenb[72] I *D senseedge_top
*CAP
1 la_oenb[72] 0.00127621
2 *646:la_oenb[72] 0.00414844
3 *497:13 0.00542466
4 la_data_out[71] *646:la_oenb[72] 0
5 la_data_out[71] *497:13 9.55502e-05
6 la_data_out[72] *497:13 0
7 la_data_out[73] *497:13 0.000552213
8 la_data_out[74] *497:13 0.000253725
9 *240:13 *646:la_oenb[72] 0
10 *243:13 *497:13 0.000110729
*RES
1 la_oenb[72] *497:13 15.4302 
2 *497:13 *646:la_oenb[72] 85.0625 
*END

*D_NET *498 0.0129095
*CONN
*P la_oenb[73] I
*I *646:la_oenb[73] I *D senseedge_top
*CAP
1 la_oenb[73] 0.00213166
2 *646:la_oenb[73] 0.00327303
3 *498:13 0.00540469
4 *241:13 *646:la_oenb[73] 0
5 *242:13 *498:13 0.00155132
6 *244:13 *498:13 0
7 *372:5 *498:13 0.000548837
*RES
1 la_oenb[73] *498:13 33.5921 
2 *498:13 *646:la_oenb[73] 67.4554 
*END

*D_NET *499 0.0119957
*CONN
*P la_oenb[74] I
*I *646:la_oenb[74] I *D senseedge_top
*CAP
1 la_oenb[74] 0.000638358
2 *646:la_oenb[74] 0.00322632
3 *499:13 0.0053595
4 *499:9 0.00277154
5 *499:13 *646:la_oenb[76] 0
6 *244:13 *499:9 0
7 *244:13 *499:13 0
8 *373:5 *499:9 0
9 *373:5 *499:13 0
*RES
1 la_oenb[74] *499:9 12.9554 
2 *499:9 *499:13 46.7671 
3 *499:13 *646:la_oenb[74] 42.2759 
*END

*D_NET *500 0.0140808
*CONN
*P la_oenb[75] I
*I *646:la_oenb[75] I *D senseedge_top
*CAP
1 la_oenb[75] 0.00152392
2 *646:la_oenb[75] 0.00352397
3 *500:13 0.00504789
4 *500:13 *646:la_oenb[77] 0
5 *500:13 *501:13 0.000713865
6 la_data_out[75] *500:13 0.000544724
7 *244:13 *500:13 0.00029025
8 *245:13 *500:13 0.00243621
9 *374:5 *500:13 0
*RES
1 la_oenb[75] *500:13 28.7567 
2 *500:13 *646:la_oenb[75] 72.3125 
*END

*D_NET *501 0.0131079
*CONN
*P la_oenb[76] I
*I *646:la_oenb[76] I *D senseedge_top
*CAP
1 la_oenb[76] 0.00183451
2 *646:la_oenb[76] 0.0035637
3 *501:13 0.00539821
4 la_data_out[75] *501:13 0.000710364
5 la_data_out[77] *501:13 0.000648659
6 *244:13 *646:la_oenb[76] 6.19632e-05
7 *245:13 *501:13 0.000176662
8 *499:13 *646:la_oenb[76] 0
9 *500:13 *501:13 0.000713865
*RES
1 la_oenb[76] *501:13 27.6865 
2 *501:13 *646:la_oenb[76] 73.5268 
*END

*D_NET *502 0.013617
*CONN
*P la_oenb[77] I
*I *646:la_oenb[77] I *D senseedge_top
*CAP
1 la_oenb[77] 0.00163929
2 *646:la_oenb[77] 0.00374473
3 *502:13 0.00538402
4 la_data_out[77] *502:13 0.00135859
5 *245:13 *646:la_oenb[77] 0
6 *247:13 *502:13 0.00149038
7 *500:13 *646:la_oenb[77] 0
*RES
1 la_oenb[77] *502:13 25.2057 
2 *502:13 *646:la_oenb[77] 76.5625 
*END

*D_NET *503 0.0150672
*CONN
*P la_oenb[78] I
*I *646:la_oenb[78] I *D senseedge_top
*CAP
1 la_oenb[78] 4.32496e-05
2 *646:la_oenb[78] 0.00341879
3 *503:7 0.0054625
4 *503:5 0.00208696
5 *503:7 *646:la_oenb[80] 0.00405573
6 *375:11 *646:la_oenb[78] 0
*RES
1 la_oenb[78] *503:5 0.883929 
2 *503:5 *503:7 59.625 
3 *503:7 *646:la_oenb[78] 40.7261 
*END

*D_NET *504 0.0142368
*CONN
*P la_oenb[79] I
*I *646:la_oenb[79] I *D senseedge_top
*CAP
1 la_oenb[79] 0.00236229
2 *646:la_oenb[79] 0.00332675
3 *504:13 0.00568904
4 *504:13 *646:la_oenb[81] 0.000609583
5 la_data_out[80] *504:13 0
6 *646:la_data_in[82] *504:13 0
7 *248:13 *504:13 0.00224914
*RES
1 la_oenb[79] *504:13 33.7274 
2 *504:13 *646:la_oenb[79] 68.0625 
*END

*D_NET *505 0.0164116
*CONN
*P la_oenb[7] I
*I *646:la_oenb[7] I *D senseedge_top
*CAP
1 la_oenb[7] 0.00152339
2 *646:la_oenb[7] 0.00215428
3 *505:11 0.00499812
4 *505:9 0.00436723
5 *646:la_oenb[7] *646:la_oenb[9] 0.000135204
6 la_data_out[7] *505:9 0
7 *646:la_data_in[5] *646:la_oenb[7] 0
8 *646:la_data_in[5] *505:11 0
9 *646:la_data_in[7] *646:la_oenb[7] 0
10 *646:la_oenb[4] *505:11 4.6025e-06
11 *646:la_oenb[6] *646:la_oenb[7] 0.00322881
12 *483:15 *505:9 0
13 *483:15 *505:11 0
*RES
1 la_oenb[7] *505:9 31.2411 
2 *505:9 *505:11 57.6607 
3 *505:11 *646:la_oenb[7] 15.7829 
*END

*D_NET *506 0.0155672
*CONN
*P la_oenb[80] I
*I *646:la_oenb[80] I *D senseedge_top
*CAP
1 la_oenb[80] 0.00217191
2 *646:la_oenb[80] 0.00293214
3 *506:13 0.00510405
4 *506:13 *646:la_oenb[82] 0
5 la_data_out[80] *506:13 0
6 *646:la_data_in[83] *506:13 0
7 *250:13 *506:13 0.00130336
8 *251:13 *506:13 0
9 *252:13 *506:13 0
10 *503:7 *646:la_oenb[80] 0.00405573
*RES
1 la_oenb[80] *506:13 23.5501 
2 *506:13 *646:la_oenb[80] 78.3839 
*END

*D_NET *507 0.0163982
*CONN
*P la_oenb[81] I
*I *646:la_oenb[81] I *D senseedge_top
*CAP
1 la_oenb[81] 0.00183882
2 *646:la_oenb[81] 0.00405563
3 *507:13 0.00589445
4 *507:13 *508:11 0.00228308
5 la_data_out[81] *507:13 0
6 *253:15 *507:13 0.00171663
7 *504:13 *646:la_oenb[81] 0.000609583
*RES
1 la_oenb[81] *507:13 15.2159 
2 *507:13 *646:la_oenb[81] 88.0982 
*END

*D_NET *508 0.0160654
*CONN
*P la_oenb[82] I
*I *646:la_oenb[82] I *D senseedge_top
*CAP
1 la_oenb[82] 0.00105761
2 *646:la_oenb[82] 0.00435441
3 *508:11 0.00541202
4 *508:11 *509:11 0.00201184
5 la_data_out[80] *646:la_oenb[82] 0
6 *253:15 *508:11 0.000946399
7 *506:13 *646:la_oenb[82] 0
8 *507:13 *508:11 0.00228308
*RES
1 la_oenb[82] *508:11 14.4098 
2 *508:11 *646:la_oenb[82] 88.7054 
*END

*D_NET *509 0.0146695
*CONN
*P la_oenb[83] I
*I *646:la_oenb[83] I *D senseedge_top
*CAP
1 la_oenb[83] 0.00154255
2 *646:la_oenb[83] 0.00081222
3 *509:13 0.0044312
4 *509:11 0.00516154
5 *509:11 *510:13 8.82891e-05
6 *509:11 *511:13 0.000163293
7 la_data_out[81] *509:13 0
8 *646:la_data_in[84] *509:13 0
9 *253:15 *509:11 0.000381119
10 *256:11 *509:11 7.7488e-05
11 *508:11 *509:11 0.00201184
*RES
1 la_oenb[83] *509:11 14.1432 
2 *509:11 *509:13 73.75 
3 *509:13 *646:la_oenb[83] 16.6339 
*END

*D_NET *510 0.0152117
*CONN
*P la_oenb[84] I
*I *646:la_oenb[84] I *D senseedge_top
*CAP
1 la_oenb[84] 0.00114903
2 *646:la_oenb[84] 0.000832523
3 *510:15 0.00427696
4 *510:13 0.00459348
5 *510:13 *511:13 0.00237704
6 la_data_out[86] *510:13 0.000694991
7 *646:la_data_in[85] *510:15 0
8 *253:15 *510:13 0.000384608
9 *255:13 *510:13 0.000814768
10 *380:13 *510:15 0
11 *509:11 *510:13 8.82891e-05
*RES
1 la_oenb[84] *510:13 16.5724 
2 *510:13 *510:15 70.7143 
3 *510:15 *646:la_oenb[84] 17.0446 
*END

*D_NET *511 0.0177957
*CONN
*P la_oenb[85] I
*I *646:la_oenb[85] I *D senseedge_top
*CAP
1 la_oenb[85] 0.000936804
2 *646:la_oenb[85] 0.00305404
3 *511:13 0.00399084
4 *511:13 *513:13 0.000818057
5 la_data_out[83] *646:la_oenb[85] 0.00228486
6 la_data_out[86] *511:13 0.000150509
7 la_data_out[87] *511:13 0.00137391
8 *256:11 *511:13 0.00103779
9 *381:13 *646:la_oenb[85] 0.00160852
10 *509:11 *511:13 0.000163293
11 *510:13 *511:13 0.00237704
*RES
1 la_oenb[85] *511:13 16.3256 
2 *511:13 *646:la_oenb[85] 86.8839 
*END

*D_NET *512 0.0170974
*CONN
*P la_oenb[86] I
*I *646:la_oenb[86] I *D senseedge_top
*CAP
1 la_oenb[86] 0.000169691
2 *646:la_oenb[86] 0.00281883
3 *512:11 0.00528278
4 *512:9 0.00263364
5 *257:13 *512:11 0
6 *259:13 *512:9 0
7 *259:13 *512:11 0
8 *383:11 *646:la_oenb[86] 0
9 *387:9 *512:11 0.00619242
*RES
1 la_oenb[86] *512:9 3.36607 
2 *512:9 *512:11 78.4464 
3 *512:11 *646:la_oenb[86] 20.868 
*END

*D_NET *513 0.0175797
*CONN
*P la_oenb[87] I
*I *646:la_oenb[87] I *D senseedge_top
*CAP
1 la_oenb[87] 0.000870622
2 *646:la_oenb[87] 0.00429228
3 *513:13 0.00516291
4 la_data_out[85] *646:la_oenb[87] 0
5 la_data_out[87] *513:13 0.00166297
6 la_data_out[88] *513:13 4.1819e-05
7 *255:13 *646:la_oenb[87] 0
8 *256:11 *513:13 0.000326674
9 *258:11 *513:13 0.00386075
10 *261:13 *513:13 0.000543613
11 *383:15 *646:la_oenb[87] 0
12 *511:13 *513:13 0.000818057
*RES
1 la_oenb[87] *513:13 15.7401 
2 *513:13 *646:la_oenb[87] 87.4911 
*END

*D_NET *514 0.0166838
*CONN
*P la_oenb[88] I
*I *646:la_oenb[88] I *D senseedge_top
*CAP
1 la_oenb[88] 0.00824586
2 *646:la_oenb[88] 0.00824586
3 la_data_out[91] *646:la_oenb[88] 7.7488e-05
4 *259:11 *646:la_oenb[88] 0.000100938
5 *261:13 *646:la_oenb[88] 1.36114e-05
*RES
1 la_oenb[88] *646:la_oenb[88] 32.7086 
*END

*D_NET *515 0.014212
*CONN
*P la_oenb[89] I
*I *646:la_oenb[89] I *D senseedge_top
*CAP
1 la_oenb[89] 0.00155677
2 *646:la_oenb[89] 0.00301084
3 *515:11 0.00554921
4 *515:9 0.00409514
5 *646:la_oenb[89] *646:la_oenb[90] 0
6 *515:9 *646:la_oenb[92] 0
7 *515:11 *646:la_oenb[92] 0
8 *391:5 *515:9 0
9 *391:5 *515:11 0
*RES
1 la_oenb[89] *515:9 31.2411 
2 *515:9 *515:11 52.1964 
3 *515:11 *646:la_oenb[89] 21.0309 
*END

*D_NET *516 0.0150013
*CONN
*P la_oenb[8] I
*I *646:la_oenb[8] I *D senseedge_top
*CAP
1 la_oenb[8] 0.00294818
2 *646:la_oenb[8] 0.00290066
3 *516:13 0.00584884
4 *166:17 *516:13 0.0001009
5 *271:13 *516:13 0
6 *294:15 *646:la_oenb[8] 0.000246009
7 *294:17 *646:la_oenb[8] 0.00295666
*RES
1 la_oenb[8] *516:13 22.779 
2 *516:13 *646:la_oenb[8] 80.8125 
*END

*D_NET *517 0.0149523
*CONN
*P la_oenb[90] I
*I *646:la_oenb[90] I *D senseedge_top
*CAP
1 la_oenb[90] 0.00155761
2 *646:la_oenb[90] 0.00334793
3 *517:13 0.0048642
4 *517:9 0.00307387
5 *517:9 *646:la_oenb[93] 0
6 *517:13 *646:la_oenb[93] 0.00210864
7 *646:la_oenb[89] *646:la_oenb[90] 0
8 *392:5 *517:9 0
9 *392:5 *517:13 0
*RES
1 la_oenb[90] *517:9 31.2411 
2 *517:9 *517:13 49.535 
3 *517:13 *646:la_oenb[90] 23.9086 
*END

*D_NET *518 0.0177297
*CONN
*P la_oenb[91] I
*I *646:la_oenb[91] I *D senseedge_top
*CAP
1 la_oenb[91] 0.00126935
2 *646:la_oenb[91] 0.00422472
3 *518:13 0.00549407
4 *518:13 *520:13 0.00154327
5 la_data_out[90] *518:13 0.00134303
6 la_data_out[91] *518:13 0.000770898
7 la_data_out[93] *518:13 0.00118027
8 *261:13 *518:13 0.00190411
9 *262:13 *518:13 0
*RES
1 la_oenb[91] *518:13 17.6751 
2 *518:13 *646:la_oenb[91] 86.2768 
*END

*D_NET *519 0.0196665
*CONN
*P la_oenb[92] I
*I *646:la_oenb[92] I *D senseedge_top
*CAP
1 la_oenb[92] 0.00112411
2 *646:la_oenb[92] 0.00436169
3 *519:11 0.00548581
4 *519:11 *520:13 0.000211351
5 *519:11 *522:17 3.05874e-05
6 la_data_out[92] *519:11 0.00439273
7 la_data_out[95] *519:11 0.000294817
8 *263:11 *519:11 0.00376538
9 *515:9 *646:la_oenb[92] 0
10 *515:11 *646:la_oenb[92] 0
*RES
1 la_oenb[92] *519:11 16.2835 
2 *519:11 *646:la_oenb[92] 88.7054 
*END

*D_NET *520 0.0203258
*CONN
*P la_oenb[93] I
*I *646:la_oenb[93] I *D senseedge_top
*CAP
1 la_oenb[93] 0.00111817
2 *646:la_oenb[93] 0.00352421
3 *520:13 0.00464238
4 *520:13 *646:la_oenb[96] 3.03519e-05
5 la_data_out[91] *520:13 0.000980459
6 la_data_out[93] *520:13 0.000259199
7 la_data_out[95] *520:13 0.00236676
8 *263:11 *520:13 0.000647802
9 *266:13 *520:13 0.00289321
10 *517:9 *646:la_oenb[93] 0
11 *517:13 *646:la_oenb[93] 0.00210864
12 *518:13 *520:13 0.00154327
13 *519:11 *520:13 0.000211351
*RES
1 la_oenb[93] *520:13 17.5003 
2 *520:13 *646:la_oenb[93] 86.8839 
*END

*D_NET *521 0.0168816
*CONN
*P la_oenb[94] I
*I *646:la_oenb[94] I *D senseedge_top
*CAP
1 la_oenb[94] 0.00224982
2 *646:la_oenb[94] 0.00081222
3 *521:15 0.00416753
4 *521:13 0.00560513
5 la_data_out[93] *521:13 0.00271714
6 la_data_out[94] *521:13 0
7 *646:la_data_in[95] *521:15 0
8 *646:la_data_in[98] *521:13 0
9 *267:13 *521:13 0.00132976
*RES
1 la_oenb[94] *521:13 19.9289 
2 *521:13 *521:15 68.8929 
3 *521:15 *646:la_oenb[94] 16.6339 
*END

*D_NET *522 0.0210687
*CONN
*P la_oenb[95] I
*I *646:la_oenb[95] I *D senseedge_top
*CAP
1 la_oenb[95] 0.00325172
2 *646:la_oenb[95] 0.00285443
3 *522:17 0.00610615
4 *522:17 *523:11 0.00369738
5 la_data_out[95] *522:17 0.00480654
6 *269:13 *522:17 0.000321942
7 *519:11 *522:17 3.05874e-05
*RES
1 la_oenb[95] *522:17 47.6107 
2 *522:17 *646:la_oenb[95] 58.8125 
*END

*D_NET *523 0.0208252
*CONN
*P la_oenb[96] I
*I *646:la_oenb[96] I *D senseedge_top
*CAP
1 la_oenb[96] 0.00092543
2 *646:la_oenb[96] 0.00436233
3 *523:11 0.00528776
4 *268:11 *523:11 0.00492316
5 *269:13 *523:11 0.000114279
6 *270:11 *523:11 0.00148451
7 *520:13 *646:la_oenb[96] 3.03519e-05
8 *522:17 *523:11 0.00369738
*RES
1 la_oenb[96] *523:11 17.0042 
2 *523:11 *646:la_oenb[96] 88.7054 
*END

*D_NET *524 0.0155596
*CONN
*P la_oenb[97] I
*I *646:la_oenb[97] I *D senseedge_top
*CAP
1 la_oenb[97] 5.26965e-05
2 *646:la_oenb[97] 0.00381524
3 *524:7 0.00616243
4 *524:5 0.00239988
5 *646:la_data_in[101] *524:7 0.00312937
6 *273:11 *646:la_oenb[97] 0
7 *395:11 *646:la_oenb[97] 0
*RES
1 la_oenb[97] *524:5 0.883929 
2 *524:5 *524:7 69.3393 
3 *524:7 *646:la_oenb[97] 34.5431 
*END

*D_NET *525 0.0191968
*CONN
*P la_oenb[98] I
*I *646:la_oenb[98] I *D senseedge_top
*CAP
1 la_oenb[98] 0.00168526
2 *646:la_oenb[98] 0.00414904
3 *525:21 0.0058343
4 *525:21 *526:21 0.000271725
5 la_data_out[98] *525:21 0.00403208
6 *145:13 *525:21 0.00160035
7 *147:13 *525:21 0.000168408
8 *267:13 *525:21 0.000915339
9 *398:26 *525:21 0.000235279
10 *401:13 *525:21 0.000305014
*RES
1 la_oenb[98] *525:21 19.3733 
2 *525:21 *646:la_oenb[98] 85.0625 
*END

*D_NET *526 0.0195609
*CONN
*P la_oenb[99] I
*I *646:la_oenb[99] I *D senseedge_top
*CAP
1 la_oenb[99] 0.00179249
2 *646:la_oenb[99] 0.00285927
3 *526:21 0.00357849
4 *526:15 0.00251172
5 la_data_out[96] *646:la_oenb[99] 0.00114266
6 la_data_out[97] *526:15 0
7 la_data_out[99] *526:15 0.00141634
8 *646:la_data_in[101] *526:15 0
9 *145:13 *526:21 0.00125506
10 *269:13 *526:15 0.00011307
11 *395:15 *646:la_oenb[99] 0.0037578
12 *398:26 *526:21 0.000414727
13 *401:13 *526:15 0.000447595
14 *525:21 *526:21 0.000271725
*RES
1 la_oenb[99] *526:15 49.4196 
2 *526:15 *526:21 9.8938 
3 *526:21 *646:la_oenb[99] 83.8482 
*END

*D_NET *527 0.0144806
*CONN
*P la_oenb[9] I
*I *646:la_oenb[9] I *D senseedge_top
*CAP
1 la_oenb[9] 0.000681139
2 *646:la_oenb[9] 0.00180411
3 *527:13 0.00598466
4 *527:11 0.00486169
5 la_data_out[10] *527:13 0
6 *646:la_data_in[10] *646:la_oenb[9] 0
7 *646:la_oenb[10] *646:la_oenb[9] 0.00101376
8 *646:la_oenb[7] *646:la_oenb[9] 0.000135204
9 *155:13 *527:13 0
10 *377:5 *527:13 0
*RES
1 la_oenb[9] *527:11 9.53091 
2 *527:11 *527:13 85.125 
3 *527:13 *646:la_oenb[9] 15.6585 
*END

*D_NET *529 0.0189664
*CONN
*P user_irq[0] O
*I *646:irq[0] O *D senseedge_top
*CAP
1 user_irq[0] 4.32496e-05
2 *646:irq[0] 0.00588447
3 *529:13 0.00344419
4 *529:11 0.00928542
5 *646:la_data_in[123] *529:11 0.00030911
6 *646:la_data_in[124] *529:11 0
7 *646:la_data_in[127] *529:11 0
*RES
1 *646:irq[0] *529:11 41.0291 
2 *529:11 *529:13 69.9464 
3 *529:13 user_irq[0] 0.883929 
*END

*D_NET *530 0.0241221
*CONN
*P user_irq[1] O
*I *646:irq[1] O *D senseedge_top
*CAP
1 user_irq[1] 0.00357583
2 *646:irq[1] 0.00445964
3 *530:5 0.00803547
4 la_data_out[123] *530:5 0
5 *170:7 *530:5 0
6 *430:11 user_irq[1] 0.00805114
*RES
1 *646:irq[1] *530:5 89.3125 
2 *530:5 user_irq[1] 23.7784 
*END

*D_NET *531 0.0190358
*CONN
*P user_irq[2] O
*I *646:irq[2] O *D senseedge_top
*CAP
1 user_irq[2] 0.00615776
2 *646:irq[2] 0.00336011
3 *531:5 0.00951788
*RES
1 *646:irq[2] *531:5 68.0625 
2 *531:5 user_irq[2] 43.6726 
*END

*D_NET *540 0.0246716
*CONN
*P wb_clk_i I
*I *646:wb_clk_i I *D senseedge_top
*CAP
1 wb_clk_i 0.0015409
2 *646:wb_clk_i 0.00424807
3 *540:11 0.00677832
4 *540:9 0.00407114
5 *646:wb_clk_i *646:wb_rst_i 0
6 *646:wb_clk_i *646:wbs_cyc_i 0.00803315
*RES
1 wb_clk_i *540:9 31.8482 
2 *540:9 *540:11 52.1964 
3 *540:11 *646:wb_clk_i 29.1024 
*END

*D_NET *541 0.0201403
*CONN
*P wb_rst_i I
*I *646:wb_rst_i I *D senseedge_top
*CAP
1 wb_rst_i 0.000964474
2 *646:wb_rst_i 0.00489369
3 *541:13 0.00859414
4 *541:11 0.00466493
5 *646:wb_rst_i *646:wbs_cyc_i 0
6 *646:wb_rst_i *568:11 0
7 *646:wb_rst_i *630:11 0.00102312
8 *541:13 *575:9 0
9 *541:13 *575:11 0
10 *541:13 *644:13 0
11 *646:wb_clk_i *646:wb_rst_i 0
*RES
1 wb_rst_i *541:11 10.3957 
2 *541:11 *541:13 76.0179 
3 *541:13 *646:wb_rst_i 32.1164 
*END

*D_NET *542 0.0196854
*CONN
*P wbs_ack_o O
*I *646:wbs_ack_o O *D senseedge_top
*CAP
1 wbs_ack_o 0.00561332
2 *646:wbs_ack_o 0.00345731
3 *542:5 0.00907064
4 wbs_ack_o *565:13 0
5 wbs_ack_o *575:9 0
6 wbs_ack_o *640:17 0
7 wbs_ack_o *644:13 0.000216648
8 *542:5 *568:9 0
9 *542:5 *568:11 0
10 *542:5 *601:7 0.00132747
*RES
1 *646:wbs_ack_o *542:5 80.8125 
2 *542:5 wbs_ack_o 31.1171 
*END

*D_NET *543 0.0194342
*CONN
*P wbs_adr_i[0] I
*I *646:wbs_adr_i[0] I *D senseedge_top
*CAP
1 wbs_adr_i[0] 4.32496e-05
2 *646:wbs_adr_i[0] 0.00625987
3 *543:7 0.00967384
4 *543:5 0.00345722
5 *646:wbs_adr_i[0] *646:wbs_adr_i[1] 0
6 *646:wbs_adr_i[0] *646:wbs_dat_i[4] 0
7 *646:wbs_adr_i[0] *569:11 0
8 *646:wbs_adr_i[0] *602:11 0
9 *646:wbs_adr_i[0] *630:11 0
10 *543:7 *644:15 0
*RES
1 wbs_adr_i[0] *543:5 0.883929 
2 *543:5 *543:7 69.9464 
3 *543:7 *646:wbs_adr_i[0] 41.0291 
*END

*D_NET *544 0.022723
*CONN
*P wbs_adr_i[10] I
*I *646:wbs_adr_i[10] I *D senseedge_top
*CAP
1 wbs_adr_i[10] 0.00145784
2 *646:wbs_adr_i[10] 0.00434849
3 *544:11 0.0060115
4 *544:9 0.00312085
5 *646:wbs_adr_i[10] *646:wbs_adr_i[12] 0
6 *646:wbs_adr_i[10] *646:wbs_adr_i[13] 0.00300623
7 *646:wbs_adr_i[10] *646:wbs_dat_i[8] 0
8 *646:wbs_adr_i[10] *613:15 0.000266612
9 *646:wbs_adr_i[10] *638:11 0
10 *544:9 *646:wbs_adr_i[5] 0.000285388
11 *544:11 *646:wbs_adr_i[5] 0.00422606
*RES
1 wbs_adr_i[10] *544:9 31.8482 
2 *544:9 *544:11 52.1964 
3 *544:11 *646:wbs_adr_i[10] 26.6521 
*END

*D_NET *545 0.0180482
*CONN
*P wbs_adr_i[11] I
*I *646:wbs_adr_i[11] I *D senseedge_top
*CAP
1 wbs_adr_i[11] 0.00452997
2 *646:wbs_adr_i[11] 0.00397088
3 *545:13 0.00850085
4 *646:wbs_adr_i[11] *610:13 0
5 *545:13 *577:13 0
6 *545:13 *604:13 0.00039655
7 *545:13 *637:13 0.000649969
*RES
1 wbs_adr_i[11] *545:13 28.8632 
2 *545:13 *646:wbs_adr_i[11] 80.2054 
*END

*D_NET *546 0.0200306
*CONN
*P wbs_adr_i[12] I
*I *646:wbs_adr_i[12] I *D senseedge_top
*CAP
1 wbs_adr_i[12] 0.00154544
2 *646:wbs_adr_i[12] 0.00396923
3 *546:11 0.00627093
4 *546:9 0.00384713
5 *646:wbs_adr_i[12] *646:wbs_adr_i[13] 0
6 *646:wbs_adr_i[12] *646:wbs_adr_i[16] 0.00105257
7 *646:wbs_adr_i[12] *646:wbs_dat_i[16] 0
8 *646:wbs_adr_i[12] *611:13 0.000739857
9 *646:wbs_adr_i[12] *638:11 0.00260548
10 *546:11 *646:wbs_adr_i[7] 0
11 *546:11 *646:wbs_dat_i[7] 0
12 *646:wbs_adr_i[10] *646:wbs_adr_i[12] 0
*RES
1 wbs_adr_i[12] *546:9 31.2411 
2 *546:9 *546:11 46.7321 
3 *546:11 *646:wbs_adr_i[12] 31.7561 
*END

*D_NET *547 0.0213613
*CONN
*P wbs_adr_i[13] I
*I *646:wbs_adr_i[13] I *D senseedge_top
*CAP
1 wbs_adr_i[13] 0.00155033
2 *646:wbs_adr_i[13] 0.0034167
3 *547:11 0.00601791
4 *547:9 0.00415154
5 *646:wbs_adr_i[13] *646:wbs_adr_i[17] 0.000922814
6 *646:wbs_adr_i[13] *646:wbs_dat_i[16] 0.00205406
7 *646:wbs_adr_i[13] *646:wbs_dat_i[9] 0
8 *646:wbs_adr_i[13] *610:11 0.000131341
9 *646:wbs_adr_i[13] *611:11 0.000110359
10 *646:wbs_adr_i[13] *612:13 0
11 *547:11 *646:wbs_adr_i[8] 0
12 *646:wbs_adr_i[10] *646:wbs_adr_i[13] 0.00300623
13 *646:wbs_adr_i[12] *646:wbs_adr_i[13] 0
*RES
1 wbs_adr_i[13] *547:9 31.2411 
2 *547:9 *547:11 52.8036 
3 *547:11 *646:wbs_adr_i[13] 25.5405 
*END

*D_NET *548 0.0172238
*CONN
*P wbs_adr_i[14] I
*I *646:wbs_adr_i[14] I *D senseedge_top
*CAP
1 wbs_adr_i[14] 4.32496e-05
2 *646:wbs_adr_i[14] 0.00514086
3 *548:7 0.00856863
4 *548:5 0.00347102
5 *646:wbs_adr_i[14] *646:wbs_adr_i[15] 0
6 *646:wbs_adr_i[14] *646:wbs_adr_i[16] 0
7 *548:7 *646:wbs_adr_i[9] 0
*RES
1 wbs_adr_i[14] *548:5 0.883929 
2 *548:5 *548:7 69.3393 
3 *548:7 *646:wbs_adr_i[14] 38.2185 
*END

*D_NET *549 0.0177606
*CONN
*P wbs_adr_i[15] I
*I *646:wbs_adr_i[15] I *D senseedge_top
*CAP
1 wbs_adr_i[15] 4.32496e-05
2 *646:wbs_adr_i[15] 0.00560609
3 *549:7 0.00806186
4 *549:5 0.00249902
5 *549:7 wbs_dat_o[14] 0
6 *549:7 *646:wbs_dat_i[10] 0.0015504
7 *549:7 *613:17 0
8 *646:wbs_adr_i[14] *646:wbs_adr_i[15] 0
*RES
1 wbs_adr_i[15] *549:5 0.883929 
2 *549:5 *549:7 63.2679 
3 *549:7 *646:wbs_adr_i[15] 44.1458 
*END

*D_NET *550 0.0179966
*CONN
*P wbs_adr_i[16] I
*I *646:wbs_adr_i[16] I *D senseedge_top
*CAP
1 wbs_adr_i[16] 0.000654627
2 *646:wbs_adr_i[16] 0.00460758
3 *550:11 0.0069328
4 *550:9 0.00297985
5 *646:wbs_adr_i[16] *646:wbs_adr_i[19] 0
6 *646:wbs_adr_i[16] *646:wbs_dat_i[11] 0.000139369
7 *646:wbs_adr_i[16] *646:wbs_dat_i[16] 0
8 *550:9 *583:9 0
9 *550:11 *646:wbs_dat_i[11] 0.00162978
10 *550:11 *583:9 0
11 *550:11 *610:13 0
12 *646:wbs_adr_i[12] *646:wbs_adr_i[16] 0.00105257
13 *646:wbs_adr_i[14] *646:wbs_adr_i[16] 0
*RES
1 wbs_adr_i[16] *550:9 12.9554 
2 *550:9 *550:11 61.7321 
3 *550:11 *646:wbs_adr_i[16] 35.1783 
*END

*D_NET *551 0.0194901
*CONN
*P wbs_adr_i[17] I
*I *646:wbs_adr_i[17] I *D senseedge_top
*CAP
1 wbs_adr_i[17] 0.00157105
2 *646:wbs_adr_i[17] 0.00326242
3 *551:11 0.00591046
4 *551:9 0.00421908
5 *646:wbs_adr_i[17] *646:wbs_dat_i[16] 0.00283022
6 *646:wbs_adr_i[17] *611:11 8.85571e-05
7 *646:wbs_adr_i[17] *612:11 0.000169686
8 *646:wbs_adr_i[17] *613:15 0
9 *646:wbs_adr_i[17] *615:11 0.000515769
10 *551:11 *646:wbs_dat_i[12] 0
11 *646:wbs_adr_i[13] *646:wbs_adr_i[17] 0.000922814
*RES
1 wbs_adr_i[17] *551:9 31.8482 
2 *551:9 *551:11 53.4107 
3 *551:11 *646:wbs_adr_i[17] 24.2127 
*END

*D_NET *552 0.0175321
*CONN
*P wbs_adr_i[18] I
*I *646:wbs_adr_i[18] I *D senseedge_top
*CAP
1 wbs_adr_i[18] 4.32496e-05
2 *646:wbs_adr_i[18] 0.00111068
3 *552:13 0.00521277
4 *552:7 0.0069306
5 *552:5 0.00287175
6 *646:wbs_adr_i[18] *620:13 0.00136305
7 *552:7 *646:wbs_dat_i[13] 0
8 *552:7 *612:13 0
9 *552:7 *616:13 0
10 *552:13 *581:13 0
11 *552:13 *589:13 0
*RES
1 wbs_adr_i[18] *552:5 0.883929 
2 *552:5 *552:7 57.1964 
3 *552:7 *552:13 18.6139 
4 *552:13 *646:wbs_adr_i[18] 31.6339 
*END

*D_NET *553 0.0183528
*CONN
*P wbs_adr_i[19] I
*I *646:wbs_adr_i[19] I *D senseedge_top
*CAP
1 wbs_adr_i[19] 4.32496e-05
2 *646:wbs_adr_i[19] 0.00508594
3 *553:7 0.00746432
4 *553:5 0.00242162
5 *646:wbs_adr_i[19] *646:wbs_adr_i[20] 0
6 *646:wbs_adr_i[19] *646:wbs_adr_i[21] 0
7 *646:wbs_adr_i[19] *646:wbs_adr_i[23] 0.000168416
8 *646:wbs_adr_i[19] *558:11 1.65923e-05
9 *553:7 *615:13 0.00315269
10 *646:wbs_adr_i[16] *646:wbs_adr_i[19] 0
*RES
1 wbs_adr_i[19] *553:5 0.883929 
2 *553:5 *553:7 69.9464 
3 *553:7 *646:wbs_adr_i[19] 37.3537 
*END

*D_NET *554 0.0196618
*CONN
*P wbs_adr_i[1] I
*I *646:wbs_adr_i[1] I *D senseedge_top
*CAP
1 wbs_adr_i[1] 4.32496e-05
2 *646:wbs_adr_i[1] 0.00664452
3 *554:7 0.00978767
4 *554:5 0.0031864
5 *554:7 *645:15 0
6 *646:wbs_adr_i[0] *646:wbs_adr_i[1] 0
*RES
1 wbs_adr_i[1] *554:5 0.883929 
2 *554:5 *554:7 63.875 
3 *554:7 *646:wbs_adr_i[1] 46.8843 
*END

*D_NET *555 0.0180786
*CONN
*P wbs_adr_i[20] I
*I *646:wbs_adr_i[20] I *D senseedge_top
*CAP
1 wbs_adr_i[20] 4.32496e-05
2 *646:wbs_adr_i[20] 0.00503272
3 *555:7 0.00732574
4 *555:5 0.00233627
5 *646:wbs_adr_i[20] *559:11 0.000821934
6 *555:7 *614:5 0.00251866
7 *646:wbs_adr_i[19] *646:wbs_adr_i[20] 0
*RES
1 wbs_adr_i[20] *555:5 0.883929 
2 *555:5 *555:7 63.875 
3 *555:7 *646:wbs_adr_i[20] 42.9206 
*END

*D_NET *556 0.0164271
*CONN
*P wbs_adr_i[21] I
*I *646:wbs_adr_i[21] I *D senseedge_top
*CAP
1 wbs_adr_i[21] 0.0015825
2 *646:wbs_adr_i[21] 0.0043132
3 *556:13 0.00660205
4 *556:9 0.00387135
5 *646:wbs_adr_i[21] *646:wbs_adr_i[23] 0
6 *646:wbs_adr_i[21] *646:wbs_adr_i[24] 0
7 *646:wbs_adr_i[21] *560:11 5.7986e-05
8 *646:wbs_adr_i[21] *618:11 0
9 *646:wbs_adr_i[21] *624:13 0
10 *556:9 *588:19 0
11 *556:9 *618:13 0
12 *556:13 *618:13 0
13 *646:wbs_adr_i[19] *646:wbs_adr_i[21] 0
*RES
1 wbs_adr_i[21] *556:9 31.8482 
2 *556:9 *556:13 49.535 
3 *556:13 *646:wbs_adr_i[21] 27.2957 
*END

*D_NET *557 0.018402
*CONN
*P wbs_adr_i[22] I
*I *646:wbs_adr_i[22] I *D senseedge_top
*CAP
1 wbs_adr_i[22] 0.00376105
2 *646:wbs_adr_i[22] 0.00300082
3 *557:13 0.00676187
4 *646:wbs_adr_i[22] *561:7 0.00454105
5 *646:wbs_adr_i[22] *625:13 0
6 *557:13 wbs_dat_o[23] 0
7 *557:13 *585:13 0
8 *557:13 *620:13 0.000337229
9 *557:13 *621:13 0
*RES
1 wbs_adr_i[22] *557:13 26.2382 
2 *557:13 *646:wbs_adr_i[22] 80.8125 
*END

*D_NET *558 0.0157245
*CONN
*P wbs_adr_i[23] I
*I *646:wbs_adr_i[23] I *D senseedge_top
*CAP
1 wbs_adr_i[23] 0.000646486
2 *646:wbs_adr_i[23] 0.00420837
3 *558:11 0.00712326
4 *558:9 0.00356138
5 *646:wbs_adr_i[23] *646:wbs_adr_i[25] 0
6 *646:wbs_adr_i[23] *626:13 0
7 *558:9 *591:7 0
8 *558:11 *591:7 0
9 *558:11 *617:7 0
10 *646:wbs_adr_i[19] *646:wbs_adr_i[23] 0.000168416
11 *646:wbs_adr_i[19] *558:11 1.65923e-05
12 *646:wbs_adr_i[21] *646:wbs_adr_i[23] 0
*RES
1 wbs_adr_i[23] *558:9 12.9554 
2 *558:9 *558:11 59.1429 
3 *558:11 *646:wbs_adr_i[23] 35.7376 
*END

*D_NET *559 0.0162981
*CONN
*P wbs_adr_i[24] I
*I *646:wbs_adr_i[24] I *D senseedge_top
*CAP
1 wbs_adr_i[24] 0.00154544
2 *646:wbs_adr_i[24] 0.00389476
3 *559:11 0.00619265
4 *559:9 0.00384333
5 *646:wbs_adr_i[24] *646:wbs_adr_i[25] 0
6 *646:wbs_adr_i[24] *626:11 0
7 *559:9 wbs_dat_o[23] 0
8 *559:11 *618:11 0
9 *646:wbs_adr_i[20] *559:11 0.000821934
10 *646:wbs_adr_i[21] *646:wbs_adr_i[24] 0
*RES
1 wbs_adr_i[24] *559:9 31.2411 
2 *559:9 *559:11 52.1964 
3 *559:11 *646:wbs_adr_i[24] 24.1298 
*END

*D_NET *560 0.0163808
*CONN
*P wbs_adr_i[25] I
*I *646:wbs_adr_i[25] I *D senseedge_top
*CAP
1 wbs_adr_i[25] 0.00153566
2 *646:wbs_adr_i[25] 0.00397304
3 *560:11 0.00627803
4 *560:9 0.00384065
5 *646:wbs_adr_i[25] *646:wbs_adr_i[28] 0
6 *646:wbs_adr_i[25] *646:wbs_dat_i[28] 0.000695443
7 *560:9 *623:13 0
8 *560:9 *624:13 0
9 *560:11 *623:13 0
10 *560:11 *624:13 0
11 *646:wbs_adr_i[21] *560:11 5.7986e-05
12 *646:wbs_adr_i[23] *646:wbs_adr_i[25] 0
13 *646:wbs_adr_i[24] *646:wbs_adr_i[25] 0
*RES
1 wbs_adr_i[25] *560:9 31.2411 
2 *560:9 *560:11 46.7321 
3 *560:11 *646:wbs_adr_i[25] 29.3779 
*END

*D_NET *561 0.0189824
*CONN
*P wbs_adr_i[26] I
*I *646:wbs_adr_i[26] I *D senseedge_top
*CAP
1 wbs_adr_i[26] 4.32496e-05
2 *646:wbs_adr_i[26] 0.0050631
3 *561:7 0.0071774
4 *561:5 0.00215755
5 *646:wbs_adr_i[26] *646:wbs_adr_i[27] 0
6 *646:wbs_adr_i[26] *594:13 0
7 *561:7 *625:13 0
8 *646:wbs_adr_i[22] *561:7 0.00454105
*RES
1 wbs_adr_i[26] *561:5 0.883929 
2 *561:5 *561:7 63.2679 
3 *561:7 *646:wbs_adr_i[26] 42.1279 
*END

*D_NET *562 0.0160141
*CONN
*P wbs_adr_i[27] I
*I *646:wbs_adr_i[27] I *D senseedge_top
*CAP
1 wbs_adr_i[27] 4.32496e-05
2 *646:wbs_adr_i[27] 0.00455017
3 *562:7 0.00796378
4 *562:5 0.00345685
5 *646:wbs_adr_i[27] *646:wbs_dat_i[28] 0
6 *562:7 *646:wbs_dat_i[23] 0
7 *646:wbs_adr_i[26] *646:wbs_adr_i[27] 0
*RES
1 wbs_adr_i[27] *562:5 0.883929 
2 *562:5 *562:7 69.3393 
3 *562:7 *646:wbs_adr_i[27] 35.8403 
*END

*D_NET *563 0.0177492
*CONN
*P wbs_adr_i[28] I
*I *646:wbs_adr_i[28] I *D senseedge_top
*CAP
1 wbs_adr_i[28] 0.00156207
2 *646:wbs_adr_i[28] 0.00328471
3 *563:11 0.00586545
4 *563:9 0.00414281
5 *646:wbs_adr_i[28] *646:wbs_dat_i[26] 0.000520383
6 *646:wbs_adr_i[28] *646:wbs_dat_i[28] 0
7 *646:wbs_adr_i[28] *646:wbs_dat_i[29] 0.00237382
8 *646:wbs_adr_i[28] *600:11 0
9 *646:wbs_adr_i[28] *626:11 0
10 *646:wbs_adr_i[28] *628:11 0
11 *646:wbs_adr_i[28] *629:13 0
12 *563:11 *646:wbs_dat_i[24] 0
13 *563:11 *627:13 0
14 *646:wbs_adr_i[25] *646:wbs_adr_i[28] 0
*RES
1 wbs_adr_i[28] *563:9 31.8482 
2 *563:9 *563:11 52.1964 
3 *563:11 *646:wbs_adr_i[28] 23.4091 
*END

*D_NET *564 0.0156596
*CONN
*P wbs_adr_i[29] I
*I *646:wbs_adr_i[29] I *D senseedge_top
*CAP
1 wbs_adr_i[29] 4.32496e-05
2 *646:wbs_adr_i[29] 0.00476423
3 *564:7 0.00749208
4 *564:5 0.0027711
5 *646:wbs_adr_i[29] *593:17 0
6 *646:wbs_adr_i[29] *599:13 0
7 *646:wbs_adr_i[29] *631:13 0
8 *564:7 wbs_dat_o[28] 0
9 *564:7 *646:wbs_dat_i[25] 0.000197277
10 *564:7 *628:13 0
11 *272:13 *646:wbs_adr_i[29] 0.000391681
*RES
1 wbs_adr_i[29] *564:5 0.883929 
2 *564:5 *564:7 57.1964 
3 *564:7 *646:wbs_adr_i[29] 48.2299 
*END

*D_NET *565 0.0191631
*CONN
*P wbs_adr_i[2] I
*I *646:wbs_adr_i[2] I *D senseedge_top
*CAP
1 wbs_adr_i[2] 0.0057747
2 *646:wbs_adr_i[2] 0.00322697
3 *565:13 0.00900167
4 *646:wbs_adr_i[2] *636:15 0.00115981
5 *565:13 *598:7 0
6 *565:13 *604:13 0
7 wbs_ack_o *565:13 0
*RES
1 wbs_adr_i[2] *565:13 36.4678 
2 *565:13 *646:wbs_adr_i[2] 74.7411 
*END

*D_NET *566 0.0156862
*CONN
*P wbs_adr_i[30] I
*I *646:wbs_adr_i[30] I *D senseedge_top
*CAP
1 wbs_adr_i[30] 0.00433566
2 *646:wbs_adr_i[30] 0.00276203
3 *566:13 0.00709769
4 *646:wbs_adr_i[30] *632:13 0
5 *566:13 *597:13 0.00146035
6 la_data_out[1] *646:wbs_adr_i[30] 3.04937e-05
*RES
1 wbs_adr_i[30] *566:13 49.9563 
2 *566:13 *646:wbs_adr_i[30] 55.9196 
*END

*D_NET *567 0.0166206
*CONN
*P wbs_adr_i[31] I
*I *646:wbs_adr_i[31] I *D senseedge_top
*CAP
1 wbs_adr_i[31] 4.32496e-05
2 *646:wbs_adr_i[31] 0.00466487
3 *567:7 0.00693696
4 *567:5 0.00231533
5 *567:7 *646:wbs_dat_i[27] 0.00253367
6 *194:13 *646:wbs_adr_i[31] 0
7 *272:11 *646:wbs_adr_i[31] 0
8 *322:11 *646:wbs_adr_i[31] 7.06369e-05
9 *322:13 *646:wbs_adr_i[31] 5.59239e-05
*RES
1 wbs_adr_i[31] *567:5 0.883929 
2 *567:5 *567:7 63.875 
3 *567:7 *646:wbs_adr_i[31] 41.191 
*END

*D_NET *568 0.0231597
*CONN
*P wbs_adr_i[3] I
*I *646:wbs_adr_i[3] I *D senseedge_top
*CAP
1 wbs_adr_i[3] 0.00155357
2 *646:wbs_adr_i[3] 0.00386249
3 *568:11 0.00645922
4 *568:9 0.0041503
5 *646:wbs_adr_i[3] *646:wbs_adr_i[4] 0
6 *646:wbs_adr_i[3] *646:wbs_cyc_i 0.000939136
7 *646:wbs_adr_i[3] *646:wbs_dat_i[4] 0.00619497
8 *646:wbs_adr_i[3] *608:11 0
9 *646:wbs_adr_i[3] *630:11 0
10 *646:wbs_adr_i[3] *643:15 0
11 *646:wb_rst_i *568:11 0
12 *542:5 *568:9 0
13 *542:5 *568:11 0
*RES
1 wbs_adr_i[3] *568:9 31.2411 
2 *568:9 *568:11 52.1964 
3 *568:11 *646:wbs_adr_i[3] 28.0214 
*END

*D_NET *569 0.0224717
*CONN
*P wbs_adr_i[4] I
*I *646:wbs_adr_i[4] I *D senseedge_top
*CAP
1 wbs_adr_i[4] 0.00155358
2 *646:wbs_adr_i[4] 0.00402762
3 *569:11 0.0063537
4 *569:9 0.00387966
5 *646:wbs_adr_i[4] *646:wbs_adr_i[6] 0
6 *646:wbs_adr_i[4] *646:wbs_dat_i[4] 0
7 *646:wbs_adr_i[4] *606:13 0
8 *646:wbs_adr_i[4] *630:11 0.00583562
9 *646:wbs_adr_i[4] *638:11 0.000821545
10 *569:11 *646:wbs_we_i 0
11 *646:wbs_adr_i[0] *569:11 0
12 *646:wbs_adr_i[3] *646:wbs_adr_i[4] 0
*RES
1 wbs_adr_i[4] *569:9 31.2411 
2 *569:9 *569:11 46.7321 
3 *569:11 *646:wbs_adr_i[4] 33.2695 
*END

*D_NET *570 0.021439
*CONN
*P wbs_adr_i[5] I
*I *646:wbs_adr_i[5] I *D senseedge_top
*CAP
1 wbs_adr_i[5] 0.00535826
2 *646:wbs_adr_i[5] 0.00233493
3 *570:13 0.00769319
4 *570:13 *574:13 0
5 *570:13 *587:13 0
6 *570:13 *603:9 0
7 *570:13 *640:21 0.00154114
8 *544:9 *646:wbs_adr_i[5] 0.000285388
9 *544:11 *646:wbs_adr_i[5] 0.00422606
*RES
1 wbs_adr_i[5] *570:13 41.7484 
2 *570:13 *646:wbs_adr_i[5] 68.0625 
*END

*D_NET *571 0.0227507
*CONN
*P wbs_adr_i[6] I
*I *646:wbs_adr_i[6] I *D senseedge_top
*CAP
1 wbs_adr_i[6] 4.32496e-05
2 *646:wbs_adr_i[6] 0.00436715
3 *571:7 0.00734158
4 *571:5 0.00301768
5 *646:wbs_adr_i[6] *607:19 0
6 *646:wbs_adr_i[6] *630:11 0
7 *646:wbs_adr_i[6] *634:11 0.00656511
8 *646:wbs_adr_i[6] *637:13 0
9 *646:wbs_adr_i[6] *638:11 0
10 *571:7 *646:wbs_sel_i[1] 0
11 *571:7 *619:5 0.00141588
12 *571:7 *641:15 0
13 *646:wbs_adr_i[4] *646:wbs_adr_i[6] 0
*RES
1 wbs_adr_i[6] *571:5 0.883929 
2 *571:5 *571:7 69.9464 
3 *571:7 *646:wbs_adr_i[6] 38.8365 
*END

*D_NET *572 0.0193449
*CONN
*P wbs_adr_i[7] I
*I *646:wbs_adr_i[7] I *D senseedge_top
*CAP
1 wbs_adr_i[7] 4.32496e-05
2 *646:wbs_adr_i[7] 0.00634171
3 *572:7 0.00935387
4 *572:5 0.00305541
5 *646:wbs_adr_i[7] *634:11 0
6 *572:7 wbs_dat_o[6] 0
7 *572:7 *646:wbs_dat_i[2] 0.000550677
8 *572:7 *636:15 0
9 *546:11 *646:wbs_adr_i[7] 0
*RES
1 wbs_adr_i[7] *572:5 0.883929 
2 *572:5 *572:7 63.2679 
3 *572:7 *646:wbs_adr_i[7] 45.5871 
*END

*D_NET *573 0.018381
*CONN
*P wbs_adr_i[8] I
*I *646:wbs_adr_i[8] I *D senseedge_top
*CAP
1 wbs_adr_i[8] 4.32496e-05
2 *646:wbs_adr_i[8] 0.00157698
3 *573:13 0.00634158
4 *573:7 0.00757026
5 *573:5 0.00284891
6 *573:7 *643:15 0
7 *573:13 *636:11 0
8 *547:11 *646:wbs_adr_i[8] 0
*RES
1 wbs_adr_i[8] *573:5 0.883929 
2 *573:5 *573:7 56.5893 
3 *573:7 *573:13 20.4876 
4 *573:13 *646:wbs_adr_i[8] 31.6339 
*END

*D_NET *574 0.0187076
*CONN
*P wbs_adr_i[9] I
*I *646:wbs_adr_i[9] I *D senseedge_top
*CAP
1 wbs_adr_i[9] 0.0059675
2 *646:wbs_adr_i[9] 0.00306479
3 *574:13 0.0090323
4 *574:13 *578:13 0
5 *574:13 *579:11 0
6 *574:13 *580:13 0.000642983
7 *574:13 *606:13 0
8 *574:13 *607:17 0
9 *548:7 *646:wbs_adr_i[9] 0
10 *570:13 *574:13 0
*RES
1 wbs_adr_i[9] *574:13 47.7765 
2 *574:13 *646:wbs_adr_i[9] 61.9911 
*END

*D_NET *575 0.0254172
*CONN
*P wbs_cyc_i I
*I *646:wbs_cyc_i I *D senseedge_top
*CAP
1 wbs_cyc_i 0.00155716
2 *646:wbs_cyc_i 0.00409722
3 *575:11 0.00666531
4 *575:9 0.00412525
5 *646:wbs_cyc_i *608:11 0
6 wbs_ack_o *575:9 0
7 *646:wb_clk_i *646:wbs_cyc_i 0.00803315
8 *646:wb_rst_i *646:wbs_cyc_i 0
9 *646:wbs_adr_i[3] *646:wbs_cyc_i 0.000939136
10 *541:13 *575:9 0
11 *541:13 *575:11 0
*RES
1 wbs_cyc_i *575:9 31.8482 
2 *575:9 *575:11 52.8036 
3 *575:11 *646:wbs_cyc_i 28.3511 
*END

*D_NET *576 0.0193977
*CONN
*P wbs_dat_i[0] I
*I *646:wbs_dat_i[0] I *D senseedge_top
*CAP
1 wbs_dat_i[0] 0.00620076
2 *646:wbs_dat_i[0] 0.00268226
3 *576:13 0.00888302
4 *646:wbs_dat_i[0] *646:wbs_dat_i[4] 0
5 *646:wbs_dat_i[0] *602:11 0.00163168
6 *646:wbs_dat_i[0] *634:13 0
7 *576:13 wbs_dat_o[0] 0
8 *576:13 *587:13 0
*RES
1 wbs_dat_i[0] *576:13 43.5788 
2 *576:13 *646:wbs_dat_i[0] 68.0625 
*END

*D_NET *577 0.0181807
*CONN
*P wbs_dat_i[10] I
*I *646:wbs_dat_i[10] I *D senseedge_top
*CAP
1 wbs_dat_i[10] 0.00528272
2 *646:wbs_dat_i[10] 0.00303243
3 *577:13 0.00831515
4 *646:wbs_dat_i[10] *582:9 0
5 *577:13 *604:13 0
6 *545:13 *577:13 0
7 *549:7 *646:wbs_dat_i[10] 0.0015504
*RES
1 wbs_dat_i[10] *577:13 34.4717 
2 *577:13 *646:wbs_dat_i[10] 74.7411 
*END

*D_NET *578 0.0176243
*CONN
*P wbs_dat_i[11] I
*I *646:wbs_dat_i[11] I *D senseedge_top
*CAP
1 wbs_dat_i[11] 0.00530165
2 *646:wbs_dat_i[11] 0.00262594
3 *578:13 0.00792758
4 *646:wbs_dat_i[11] *610:13 0
5 *578:13 *646:wbs_dat_i[6] 0
6 *646:wbs_adr_i[16] *646:wbs_dat_i[11] 0.000139369
7 *550:11 *646:wbs_dat_i[11] 0.00162978
8 *574:13 *578:13 0
*RES
1 wbs_dat_i[11] *578:13 41.2727 
2 *578:13 *646:wbs_dat_i[11] 68.0625 
*END

*D_NET *579 0.0175457
*CONN
*P wbs_dat_i[12] I
*I *646:wbs_dat_i[12] I *D senseedge_top
*CAP
1 wbs_dat_i[12] 0.00598112
2 *646:wbs_dat_i[12] 0.00279173
3 *579:13 0.00279173
4 *579:11 0.00598112
5 *579:11 *580:13 0
6 *551:11 *646:wbs_dat_i[12] 0
7 *574:13 *579:11 0
*RES
1 wbs_dat_i[12] *579:11 49.8614 
2 *579:11 *579:13 3.41 
3 *579:13 *646:wbs_dat_i[12] 55.9196 
*END

*D_NET *580 0.0180453
*CONN
*P wbs_dat_i[13] I
*I *646:wbs_dat_i[13] I *D senseedge_top
*CAP
1 wbs_dat_i[13] 0.00564083
2 *646:wbs_dat_i[13] 0.00306031
3 *580:13 0.00870115
4 *646:wbs_dat_i[13] *612:13 0
5 *552:7 *646:wbs_dat_i[13] 0
6 *574:13 *580:13 0.000642983
7 *579:11 *580:13 0
*RES
1 wbs_dat_i[13] *580:13 47.2523 
2 *580:13 *646:wbs_dat_i[13] 61.3839 
*END

*D_NET *581 0.0173094
*CONN
*P wbs_dat_i[14] I
*I *646:wbs_dat_i[14] I *D senseedge_top
*CAP
1 wbs_dat_i[14] 4.32496e-05
2 *646:wbs_dat_i[14] 0.00188389
3 *581:13 0.00609625
4 *581:7 0.00672758
5 *581:5 0.00255847
6 *646:wbs_dat_i[14] *615:13 0
7 *581:7 *639:7 0
8 *581:13 *582:13 0
9 *552:13 *581:13 0
*RES
1 wbs_dat_i[14] *581:5 0.883929 
2 *581:5 *581:7 50.5179 
3 *581:7 *581:13 19.2625 
4 *581:13 *646:wbs_dat_i[14] 37.7054 
*END

*D_NET *582 0.0175172
*CONN
*P wbs_dat_i[15] I
*I *646:wbs_dat_i[15] I *D senseedge_top
*CAP
1 wbs_dat_i[15] 0.00225203
2 *646:wbs_dat_i[15] 0.00217065
3 *582:13 0.00650426
4 *582:9 0.00658564
5 *646:wbs_dat_i[15] *617:15 4.6025e-06
6 *582:13 *584:17 0
7 *646:wbs_dat_i[10] *582:9 0
8 *581:13 *582:13 0
*RES
1 wbs_dat_i[15] *582:9 48.7404 
2 *582:9 *582:13 15.7083 
3 *582:13 *646:wbs_dat_i[15] 43.7768 
*END

*D_NET *583 0.01992
*CONN
*P wbs_dat_i[16] I
*I *646:wbs_dat_i[16] I *D senseedge_top
*CAP
1 wbs_dat_i[16] 0.00154135
2 *646:wbs_dat_i[16] 0.00338762
3 *583:11 0.0059765
4 *583:9 0.00413023
5 *583:9 *611:13 0
6 *583:11 *611:13 0
7 *646:wbs_adr_i[12] *646:wbs_dat_i[16] 0
8 *646:wbs_adr_i[13] *646:wbs_dat_i[16] 0.00205406
9 *646:wbs_adr_i[16] *646:wbs_dat_i[16] 0
10 *646:wbs_adr_i[17] *646:wbs_dat_i[16] 0.00283022
11 *550:9 *583:9 0
12 *550:11 *583:9 0
*RES
1 wbs_dat_i[16] *583:9 31.2411 
2 *583:9 *583:11 52.1964 
3 *583:11 *646:wbs_dat_i[16] 25.4991 
*END

*D_NET *584 0.0169555
*CONN
*P wbs_dat_i[17] I
*I *646:wbs_dat_i[17] I *D senseedge_top
*CAP
1 wbs_dat_i[17] 0.00206371
2 *646:wbs_dat_i[17] 0.0025568
3 *584:17 0.00641407
4 *584:13 0.00592097
5 *584:13 *612:13 0
6 *584:17 *616:13 0
7 *584:17 *617:11 0
8 *582:13 *584:17 0
*RES
1 wbs_dat_i[17] *584:13 45.3832 
2 *584:13 *584:17 14.6273 
3 *584:17 *646:wbs_dat_i[17] 49.8482 
*END

*D_NET *585 0.0172687
*CONN
*P wbs_dat_i[18] I
*I *646:wbs_dat_i[18] I *D senseedge_top
*CAP
1 wbs_dat_i[18] 0.00485366
2 *646:wbs_dat_i[18] 0.00370784
3 *585:13 0.0085615
4 *646:wbs_dat_i[18] *590:13 2.69575e-05
5 *585:13 wbs_dat_o[15] 0
6 *585:13 *590:13 0.000118774
7 *557:13 *585:13 0
*RES
1 wbs_dat_i[18] *585:13 33.2969 
2 *585:13 *646:wbs_dat_i[18] 74.7411 
*END

*D_NET *586 0.0168697
*CONN
*P wbs_dat_i[19] I
*I *646:wbs_dat_i[19] I *D senseedge_top
*CAP
1 wbs_dat_i[19] 0.00505759
2 *646:wbs_dat_i[19] 0.00337723
3 *586:13 0.00843483
4 *646:wbs_dat_i[19] *591:7 0
5 *646:wbs_dat_i[19] *622:13 0
6 *586:13 *588:19 0
7 *586:13 *590:13 0
*RES
1 wbs_dat_i[19] *586:13 39.8313 
2 *586:13 *646:wbs_dat_i[19] 68.0625 
*END

*D_NET *587 0.0217373
*CONN
*P wbs_dat_i[1] I
*I *646:wbs_dat_i[1] I *D senseedge_top
*CAP
1 wbs_dat_i[1] 0.00641395
2 *646:wbs_dat_i[1] 0.0019924
3 *587:13 0.00840635
4 *646:wbs_dat_i[1] *633:13 0.00492462
5 *587:13 *642:13 0
6 *570:13 *587:13 0
7 *576:13 *587:13 0
*RES
1 wbs_dat_i[1] *587:13 48.6847 
2 *587:13 *646:wbs_dat_i[1] 61.9911 
*END

*D_NET *588 0.0168638
*CONN
*P wbs_dat_i[20] I
*I *646:wbs_dat_i[20] I *D senseedge_top
*CAP
1 wbs_dat_i[20] 0.00531547
2 *646:wbs_dat_i[20] 0.00282913
3 *588:21 0.00282913
4 *588:19 0.00531547
5 *646:wbs_dat_i[20] *592:9 0.000574589
6 *588:19 wbs_dat_o[19] 0
7 *588:19 wbs_dat_o[20] 0
8 *588:19 *616:13 0
9 *588:19 *621:13 0
10 *556:9 *588:19 0
11 *586:13 *588:19 0
*RES
1 wbs_dat_i[20] *588:19 48.9299 
2 *588:19 *588:21 3.41 
3 *588:21 *646:wbs_dat_i[20] 61.9911 
*END

*D_NET *589 0.0172501
*CONN
*P wbs_dat_i[21] I
*I *646:wbs_dat_i[21] I *D senseedge_top
*CAP
1 wbs_dat_i[21] 4.32496e-05
2 *646:wbs_dat_i[21] 0.00188089
3 *589:13 0.00568075
4 *589:7 0.00555114
5 *589:5 0.00179453
6 *646:wbs_dat_i[21] *593:13 2.83284e-06
7 *646:wbs_dat_i[21] *624:13 0
8 *589:7 *618:13 0.00229672
9 *589:13 *646:wbs_dat_i[23] 0
10 *589:13 *617:11 0
11 *552:13 *589:13 0
*RES
1 wbs_dat_i[21] *589:5 0.883929 
2 *589:5 *589:7 51.125 
3 *589:7 *589:13 18.0373 
4 *589:13 *646:wbs_dat_i[21] 37.7054 
*END

*D_NET *590 0.0163427
*CONN
*P wbs_dat_i[22] I
*I *646:wbs_dat_i[22] I *D senseedge_top
*CAP
1 wbs_dat_i[22] 0.00441224
2 *646:wbs_dat_i[22] 0.00368626
3 *590:13 0.0080985
4 *646:wbs_dat_i[18] *590:13 2.69575e-05
5 *585:13 *590:13 0.000118774
6 *586:13 *590:13 0
*RES
1 wbs_dat_i[22] *590:13 33.1834 
2 *590:13 *646:wbs_dat_i[22] 74.1339 
*END

*D_NET *591 0.0155975
*CONN
*P wbs_dat_i[23] I
*I *646:wbs_dat_i[23] I *D senseedge_top
*CAP
1 wbs_dat_i[23] 4.32496e-05
2 *646:wbs_dat_i[23] 0.00495383
3 *591:7 0.00775552
4 *591:5 0.00284494
5 *646:wbs_dat_i[23] *593:17 0
6 *591:7 *622:13 0
7 *646:wbs_dat_i[19] *591:7 0
8 *558:9 *591:7 0
9 *558:11 *591:7 0
10 *562:7 *646:wbs_dat_i[23] 0
11 *589:13 *646:wbs_dat_i[23] 0
*RES
1 wbs_dat_i[23] *591:5 0.883929 
2 *591:5 *591:7 56.5893 
3 *591:7 *646:wbs_dat_i[23] 49.2389 
*END

*D_NET *592 0.0161391
*CONN
*P wbs_dat_i[24] I
*I *646:wbs_dat_i[24] I *D senseedge_top
*CAP
1 wbs_dat_i[24] 0.00199781
2 *646:wbs_dat_i[24] 0.00218048
3 *592:13 0.00578446
4 *592:9 0.0056018
5 *646:wbs_dat_i[24] *627:13 0
6 *592:13 *593:17 0
7 *592:13 *623:13 0
8 *646:wbs_dat_i[20] *592:9 0.000574589
9 *563:11 *646:wbs_dat_i[24] 0
*RES
1 wbs_dat_i[24] *592:9 48.7404 
2 *592:9 *592:13 14.0508 
3 *592:13 *646:wbs_dat_i[24] 43.7768 
*END

*D_NET *593 0.0176341
*CONN
*P wbs_dat_i[25] I
*I *646:wbs_dat_i[25] I *D senseedge_top
*CAP
1 wbs_dat_i[25] 0.000638358
2 *646:wbs_dat_i[25] 0.00116521
3 *593:17 0.00469266
4 *593:13 0.00548109
5 *593:9 0.00259199
6 *646:wbs_dat_i[25] *628:13 0.00286472
7 *593:13 *621:5 0
8 *593:13 *624:13 0
9 *646:wbs_adr_i[29] *593:17 0
10 *646:wbs_dat_i[21] *593:13 2.83284e-06
11 *646:wbs_dat_i[23] *593:17 0
12 *564:7 *646:wbs_dat_i[25] 0.000197277
13 *592:13 *593:17 0
*RES
1 wbs_dat_i[25] *593:9 12.9554 
2 *593:9 *593:13 43.1243 
3 *593:13 *593:17 13.6184 
4 *593:17 *646:wbs_dat_i[25] 37.7054 
*END

*D_NET *594 0.0178816
*CONN
*P wbs_dat_i[26] I
*I *646:wbs_dat_i[26] I *D senseedge_top
*CAP
1 wbs_dat_i[26] 0.00295741
2 *646:wbs_dat_i[26] 0.000896595
3 *594:13 0.00411877
4 *594:11 0.00617958
5 *646:wbs_dat_i[26] *646:wbs_dat_i[28] 0
6 *646:wbs_dat_i[26] *597:13 0
7 *594:11 wbs_dat_o[27] 0.000824418
8 *594:11 wbs_dat_o[28] 0.000206943
9 *594:13 *625:5 0.0021775
10 *646:wbs_adr_i[26] *594:13 0
11 *646:wbs_adr_i[28] *646:wbs_dat_i[26] 0.000520383
*RES
1 wbs_dat_i[26] *594:11 16.788 
2 *594:11 *594:13 80.875 
3 *594:13 *646:wbs_dat_i[26] 16.4078 
*END

*D_NET *595 0.0165828
*CONN
*P wbs_dat_i[27] I
*I *646:wbs_dat_i[27] I *D senseedge_top
*CAP
1 wbs_dat_i[27] 0.00371227
2 *646:wbs_dat_i[27] 0.00311836
3 *595:13 0.00683062
4 *595:13 wbs_dat_o[28] 0
5 *595:13 wbs_dat_o[29] 0.000387865
6 *567:7 *646:wbs_dat_i[27] 0.00253367
*RES
1 wbs_dat_i[27] *595:13 25.2293 
2 *595:13 *646:wbs_dat_i[27] 80.8125 
*END

*D_NET *596 0.0167567
*CONN
*P wbs_dat_i[28] I
*I *646:wbs_dat_i[28] I *D senseedge_top
*CAP
1 wbs_dat_i[28] 0.00109831
2 *646:wbs_dat_i[28] 0.00399452
3 *596:13 0.00626379
4 *596:9 0.00336758
5 *596:9 *627:13 0.00133704
6 *596:13 *627:13 0
7 *646:wbs_adr_i[25] *646:wbs_dat_i[28] 0.000695443
8 *646:wbs_adr_i[27] *646:wbs_dat_i[28] 0
9 *646:wbs_adr_i[28] *646:wbs_dat_i[28] 0
10 *646:wbs_dat_i[26] *646:wbs_dat_i[28] 0
*RES
1 wbs_dat_i[28] *596:9 31.8482 
2 *596:9 *596:13 49.535 
3 *596:13 *646:wbs_dat_i[28] 25.9985 
*END

*D_NET *597 0.0178882
*CONN
*P wbs_dat_i[29] I
*I *646:wbs_dat_i[29] I *D senseedge_top
*CAP
1 wbs_dat_i[29] 0.000884746
2 *646:wbs_dat_i[29] 0.00236538
3 *597:13 0.00596937
4 *597:11 0.00448874
5 *646:wbs_dat_i[29] *628:11 0
6 *646:wbs_dat_i[29] *629:11 0.000345788
7 *597:11 wbs_dat_o[29] 0
8 *597:13 *599:7 0
9 *646:wbs_adr_i[28] *646:wbs_dat_i[29] 0.00237382
10 *646:wbs_dat_i[26] *597:13 0
11 *566:13 *597:13 0.00146035
*RES
1 wbs_dat_i[29] *597:11 10.5902 
2 *597:11 *597:13 83.3036 
3 *597:13 *646:wbs_dat_i[29] 20.2076 
*END

*D_NET *598 0.0188756
*CONN
*P wbs_dat_i[2] I
*I *646:wbs_dat_i[2] I *D senseedge_top
*CAP
1 wbs_dat_i[2] 4.32496e-05
2 *646:wbs_dat_i[2] 0.00147361
3 *598:13 0.00630369
4 *598:7 0.00764559
5 *598:5 0.00285876
6 *598:13 *601:13 0
7 *598:13 *636:11 0
8 *598:13 *644:21 0
9 *565:13 *598:7 0
10 *572:7 *646:wbs_dat_i[2] 0.000550677
*RES
1 wbs_dat_i[2] *598:5 0.883929 
2 *598:5 *598:7 56.5893 
3 *598:7 *598:13 21.6407 
4 *598:13 *646:wbs_dat_i[2] 31.6339 
*END

*D_NET *599 0.015443
*CONN
*P wbs_dat_i[30] I
*I *646:wbs_dat_i[30] I *D senseedge_top
*CAP
1 wbs_dat_i[30] 4.32496e-05
2 *646:wbs_dat_i[30] 0.00188219
3 *599:13 0.0051758
4 *599:7 0.00579606
5 *599:5 0.00254571
6 *646:la_oenb[0] *599:13 0
7 *646:wbs_adr_i[29] *599:13 0
8 *597:13 *599:7 0
*RES
1 wbs_dat_i[30] *599:5 0.883929 
2 *599:5 *599:7 51.125 
3 *599:7 *599:13 16.3798 
4 *599:13 *646:wbs_dat_i[30] 37.7054 
*END

*D_NET *600 0.020034
*CONN
*P wbs_dat_i[31] I
*I *646:wbs_dat_i[31] I *D senseedge_top
*CAP
1 wbs_dat_i[31] 0.00155393
2 *646:wbs_dat_i[31] 0.00196813
3 *600:11 0.00396822
4 *600:9 0.00355402
5 *646:wbs_dat_i[31] *628:11 0.00080394
6 *646:wbs_dat_i[31] *629:11 2.3695e-05
7 *646:wbs_dat_i[31] *631:11 0.00322479
8 *646:wbs_dat_i[31] *632:11 0.0024235
9 *600:9 *629:13 0
10 *600:11 *629:13 0.00251376
11 *646:wbs_adr_i[28] *600:11 0
*RES
1 wbs_dat_i[31] *600:9 31.8482 
2 *600:9 *600:11 57.6607 
3 *600:11 *646:wbs_dat_i[31] 17.2963 
*END

*D_NET *601 0.0210553
*CONN
*P wbs_dat_i[3] I
*I *646:wbs_dat_i[3] I *D senseedge_top
*CAP
1 wbs_dat_i[3] 4.32496e-05
2 *646:wbs_dat_i[3] 0.00190744
3 *601:13 0.00606823
4 *601:7 0.00609357
5 *601:5 0.00197603
6 *646:wbs_dat_i[3] *643:15 0
7 *601:13 *603:13 0
8 *601:13 *636:11 0.00265513
9 *601:13 *644:21 0.00098413
10 *601:13 *645:19 0
11 *542:5 *601:7 0.00132747
12 *598:13 *601:13 0
*RES
1 wbs_dat_i[3] *601:5 0.883929 
2 *601:5 *601:7 50.5179 
3 *601:7 *601:13 21.3524 
4 *601:13 *646:wbs_dat_i[3] 37.7054 
*END

*D_NET *602 0.02311
*CONN
*P wbs_dat_i[4] I
*I *646:wbs_dat_i[4] I *D senseedge_top
*CAP
1 wbs_dat_i[4] 0.000651395
2 *646:wbs_dat_i[4] 0.00455533
3 *602:11 0.00689468
4 *602:9 0.00299074
5 *646:wbs_dat_i[4] *646:wbs_dat_i[8] 0
6 *646:wbs_dat_i[4] *646:wbs_sel_i[3] 0.000191211
7 *646:wbs_dat_i[4] *633:11 0
8 *602:9 *634:13 0
9 *602:11 *634:13 0
10 *646:wbs_adr_i[0] *646:wbs_dat_i[4] 0
11 *646:wbs_adr_i[0] *602:11 0
12 *646:wbs_adr_i[3] *646:wbs_dat_i[4] 0.00619497
13 *646:wbs_adr_i[4] *646:wbs_dat_i[4] 0
14 *646:wbs_dat_i[0] *646:wbs_dat_i[4] 0
15 *646:wbs_dat_i[0] *602:11 0.00163168
*RES
1 wbs_dat_i[4] *602:9 12.9554 
2 *602:9 *602:11 61.7321 
3 *602:11 *646:wbs_dat_i[4] 37.3403 
*END

*D_NET *603 0.0196219
*CONN
*P wbs_dat_i[5] I
*I *646:wbs_dat_i[5] I *D senseedge_top
*CAP
1 wbs_dat_i[5] 0.0022518
2 *646:wbs_dat_i[5] 0.00225961
3 *603:13 0.00691035
4 *603:9 0.00690254
5 *603:9 *646:wbs_sel_i[0] 0
6 *603:9 *640:21 0
7 *603:13 *619:11 0
8 *603:13 *635:11 0
9 *603:13 *639:11 0.00129761
10 *570:13 *603:9 0
11 *601:13 *603:13 0
*RES
1 wbs_dat_i[5] *603:9 48.7404 
2 *603:9 *603:13 17.51 
3 *603:13 *646:wbs_dat_i[5] 43.7768 
*END

*D_NET *604 0.0184605
*CONN
*P wbs_dat_i[6] I
*I *646:wbs_dat_i[6] I *D senseedge_top
*CAP
1 wbs_dat_i[6] 0.00500609
2 *646:wbs_dat_i[6] 0.00402587
3 *604:13 0.00903196
4 *646:wbs_dat_i[6] *637:13 0
5 *604:13 *607:17 0
6 *604:13 *641:15 0
7 *545:13 *604:13 0.00039655
8 *565:13 *604:13 0
9 *577:13 *604:13 0
10 *578:13 *646:wbs_dat_i[6] 0
*RES
1 wbs_dat_i[6] *604:13 29.1209 
2 *604:13 *646:wbs_dat_i[6] 80.8125 
*END

*D_NET *605 0.0181969
*CONN
*P wbs_dat_i[7] I
*I *646:wbs_dat_i[7] I *D senseedge_top
*CAP
1 wbs_dat_i[7] 0.00166585
2 *646:wbs_dat_i[7] 0.0027522
3 *605:13 0.00727804
4 *605:9 0.00619169
5 *605:13 *635:11 0
6 *605:13 *642:13 0.000309118
7 *546:11 *646:wbs_dat_i[7] 0
*RES
1 wbs_dat_i[7] *605:9 37.2046 
2 *605:9 *605:13 16.8614 
3 *605:13 *646:wbs_dat_i[7] 55.3125 
*END

*D_NET *606 0.0208446
*CONN
*P wbs_dat_i[8] I
*I *646:wbs_dat_i[8] I *D senseedge_top
*CAP
1 wbs_dat_i[8] 0.000324615
2 *646:wbs_dat_i[8] 0.00361171
3 *606:13 0.00789044
4 *606:11 0.00460334
5 *646:wbs_dat_i[8] *646:wbs_dat_i[9] 0.00103528
6 *646:wbs_dat_i[8] *637:11 0.00254299
7 *606:11 wbs_dat_o[7] 0.000777518
8 *606:13 wbs_dat_o[8] 0
9 *606:13 *646:wbs_sel_i[3] 5.86995e-05
10 *606:13 *638:15 0
11 *646:wbs_adr_i[10] *646:wbs_dat_i[8] 0
12 *646:wbs_adr_i[4] *606:13 0
13 *646:wbs_dat_i[4] *646:wbs_dat_i[8] 0
14 *574:13 *606:13 0
*RES
1 wbs_dat_i[8] *606:11 9.72542 
2 *606:11 *606:13 86.3393 
3 *606:13 *646:wbs_dat_i[8] 20.714 
*END

*D_NET *607 0.0215286
*CONN
*P wbs_dat_i[9] I
*I *646:wbs_dat_i[9] I *D senseedge_top
*CAP
1 wbs_dat_i[9] 0.00253629
2 *646:wbs_dat_i[9] 0.00253518
3 *607:19 0.00468696
4 *607:17 0.00468807
5 *646:wbs_dat_i[9] *637:11 0.00254299
6 *607:17 wbs_dat_o[7] 0.00132576
7 *607:19 *635:5 0.00217807
8 *646:wbs_adr_i[13] *646:wbs_dat_i[9] 0
9 *646:wbs_adr_i[6] *607:19 0
10 *646:wbs_dat_i[8] *646:wbs_dat_i[9] 0.00103528
11 *574:13 *607:17 0
12 *604:13 *607:17 0
*RES
1 wbs_dat_i[9] *607:17 42.132 
2 *607:17 *607:19 58.2679 
3 *607:19 *646:wbs_dat_i[9] 16.9053 
*END

*D_NET *608 0.0193846
*CONN
*P wbs_dat_o[0] O
*I *646:wbs_dat_o[0] O *D senseedge_top
*CAP
1 wbs_dat_o[0] 0.0015973
2 *646:wbs_dat_o[0] 0.00522866
3 *608:13 0.00446364
4 *608:11 0.008095
5 *646:wbs_adr_i[3] *608:11 0
6 *646:wbs_cyc_i *608:11 0
7 *576:13 wbs_dat_o[0] 0
*RES
1 *646:wbs_dat_o[0] *608:11 22.5986 
2 *608:11 *608:13 58.2679 
3 *608:13 wbs_dat_o[0] 31.8482 
*END

*D_NET *609 0.0243859
*CONN
*P wbs_dat_o[10] O
*I *646:wbs_dat_o[10] O *D senseedge_top
*CAP
1 wbs_dat_o[10] 0.00216201
2 *646:wbs_dat_o[10] 0.000593779
3 *609:13 0.00543493
4 *609:11 0.00386669
5 wbs_dat_o[10] wbs_dat_o[11] 0.00512126
6 wbs_dat_o[10] wbs_dat_o[12] 0.00332413
7 wbs_dat_o[10] wbs_dat_o[7] 0.000640296
8 *609:11 *613:15 0.000712178
9 *609:13 wbs_dat_o[14] 0
10 *609:13 *613:15 0.000615954
11 *609:13 *613:17 0.00191468
12 *609:13 *639:7 0
*RES
1 *646:wbs_dat_o[10] *609:11 10.7688 
2 *609:11 *609:13 86.9464 
3 *609:13 wbs_dat_o[10] 19.7019 
*END

*D_NET *610 0.0213992
*CONN
*P wbs_dat_o[11] O
*I *646:wbs_dat_o[11] O *D senseedge_top
*CAP
1 wbs_dat_o[11] 0.00240858
2 *646:wbs_dat_o[11] 0.000456591
3 *610:13 0.0065638
4 *610:11 0.00461181
5 wbs_dat_o[11] wbs_dat_o[12] 0.00124833
6 *610:11 *613:15 0.000257261
7 *610:13 wbs_dat_o[15] 0.000600181
8 wbs_dat_o[10] wbs_dat_o[11] 0.00512126
9 *646:wbs_adr_i[11] *610:13 0
10 *646:wbs_adr_i[13] *610:11 0.000131341
11 *646:wbs_dat_i[11] *610:13 0
12 *550:11 *610:13 0
*RES
1 *646:wbs_dat_o[11] *610:11 11.3345 
2 *610:11 *610:13 86.3393 
3 *610:13 wbs_dat_o[11] 19.7255 
*END

*D_NET *611 0.0241661
*CONN
*P wbs_dat_o[12] O
*I *646:wbs_dat_o[12] O *D senseedge_top
*CAP
1 wbs_dat_o[12] 0.00204114
2 *646:wbs_dat_o[12] 0.000545387
3 *611:13 0.00611033
4 *611:11 0.00461458
5 wbs_dat_o[12] wbs_dat_o[13] 0.00500839
6 *611:11 *613:15 0.000335069
7 wbs_dat_o[10] wbs_dat_o[12] 0.00332413
8 wbs_dat_o[11] wbs_dat_o[12] 0.00124833
9 *646:wbs_adr_i[12] *611:13 0.000739857
10 *646:wbs_adr_i[13] *611:11 0.000110359
11 *646:wbs_adr_i[17] *611:11 8.85571e-05
12 *583:9 *611:13 0
13 *583:11 *611:13 0
*RES
1 *646:wbs_dat_o[12] *611:11 11.7669 
2 *611:11 *611:13 85.125 
3 *611:13 wbs_dat_o[12] 18.7554 
*END

*D_NET *612 0.0208214
*CONN
*P wbs_dat_o[13] O
*I *646:wbs_dat_o[13] O *D senseedge_top
*CAP
1 wbs_dat_o[13] 0.00262683
2 *646:wbs_dat_o[13] 0.00039568
3 *612:13 0.00681653
4 *612:11 0.00458538
5 wbs_dat_o[13] wbs_dat_o[16] 0.00100251
6 *612:11 *613:15 0.000216437
7 wbs_dat_o[12] wbs_dat_o[13] 0.00500839
8 *646:wbs_adr_i[13] *612:13 0
9 *646:wbs_adr_i[17] *612:11 0.000169686
10 *646:wbs_dat_i[13] *612:13 0
11 *552:7 *612:13 0
12 *584:13 *612:13 0
*RES
1 *646:wbs_dat_o[13] *612:11 11.1183 
2 *612:11 *612:13 84.5179 
3 *612:13 wbs_dat_o[13] 20.2586 
*END

*D_NET *613 0.0182088
*CONN
*P wbs_dat_o[14] O
*I *646:wbs_dat_o[14] O *D senseedge_top
*CAP
1 wbs_dat_o[14] 0.000654627
2 *646:wbs_dat_o[14] 0.00402472
3 *613:17 0.00285296
4 *613:15 0.00622306
5 *613:15 *615:11 0.000135204
6 *613:15 *639:7 0
7 *646:wbs_adr_i[10] *613:15 0.000266612
8 *646:wbs_adr_i[17] *613:15 0
9 *549:7 wbs_dat_o[14] 0
10 *549:7 *613:17 0
11 *609:11 *613:15 0.000712178
12 *609:13 wbs_dat_o[14] 0
13 *609:13 *613:15 0.000615954
14 *609:13 *613:17 0.00191468
15 *610:11 *613:15 0.000257261
16 *611:11 *613:15 0.000335069
17 *612:11 *613:15 0.000216437
*RES
1 *646:wbs_dat_o[14] *613:15 35.4665 
2 *613:15 *613:17 61.7321 
3 *613:17 wbs_dat_o[14] 12.9554 
*END

*D_NET *614 0.0180428
*CONN
*P wbs_dat_o[15] O
*I *646:wbs_dat_o[15] O *D senseedge_top
*CAP
1 wbs_dat_o[15] 0.00431455
2 *646:wbs_dat_o[15] 0.00314741
3 *614:5 0.00746196
4 *614:5 *617:15 0
5 *555:7 *614:5 0.00251866
6 *585:13 wbs_dat_o[15] 0
7 *610:13 wbs_dat_o[15] 0.000600181
*RES
1 *646:wbs_dat_o[15] *614:5 80.8125 
2 *614:5 wbs_dat_o[15] 27.3913 
*END

*D_NET *615 0.019664
*CONN
*P wbs_dat_o[16] O
*I *646:wbs_dat_o[16] O *D senseedge_top
*CAP
1 wbs_dat_o[16] 0.00179041
2 *646:wbs_dat_o[16] 0.0018938
3 *615:13 0.00499326
4 *615:11 0.00509665
5 wbs_dat_o[16] wbs_dat_o[17] 0.000589915
6 wbs_dat_o[16] wbs_dat_o[18] 0.000493839
7 wbs_dat_o[13] wbs_dat_o[16] 0.00100251
8 *646:wbs_adr_i[17] *615:11 0.000515769
9 *646:wbs_dat_i[14] *615:13 0
10 *553:7 *615:13 0.00315269
11 *613:15 *615:11 0.000135204
*RES
1 *646:wbs_dat_o[16] *615:11 15.0513 
2 *615:11 *615:13 86.3393 
3 *615:13 wbs_dat_o[16] 13.7325 
*END

*D_NET *616 0.0173896
*CONN
*P wbs_dat_o[17] O
*I *646:wbs_dat_o[17] O *D senseedge_top
*CAP
1 wbs_dat_o[17] 0.000271062
2 *646:wbs_dat_o[17] 0.0027746
3 *616:13 0.00556585
4 *616:5 0.00806939
5 *616:5 *620:13 0
6 *616:13 *621:13 0.000118774
7 wbs_dat_o[16] wbs_dat_o[17] 0.000589915
8 *552:7 *616:13 0
9 *584:17 *616:13 0
10 *588:19 *616:13 0
*RES
1 *646:wbs_dat_o[17] *616:5 55.9196 
2 *616:5 *616:13 49.6923 
3 *616:13 wbs_dat_o[17] 9.43716 
*END

*D_NET *617 0.0179496
*CONN
*P wbs_dat_o[18] O
*I *646:wbs_dat_o[18] O *D senseedge_top
*CAP
1 wbs_dat_o[18] 0.00120628
2 *646:wbs_dat_o[18] 0.00217234
3 *617:15 0.00341338
4 *617:11 0.00533169
5 *617:7 0.00529693
6 wbs_dat_o[18] wbs_dat_o[19] 3.05874e-05
7 wbs_dat_o[16] wbs_dat_o[18] 0.000493839
8 *646:wbs_dat_i[15] *617:15 4.6025e-06
9 *558:11 *617:7 0
10 *584:17 *617:11 0
11 *589:13 *617:11 0
12 *614:5 *617:15 0
*RES
1 *646:wbs_dat_o[18] *617:7 47.1868 
2 *617:7 *617:11 11.9609 
3 *617:11 *617:15 47.8564 
4 *617:15 wbs_dat_o[18] 8.17194 
*END

*D_NET *618 0.0183761
*CONN
*P wbs_dat_o[19] O
*I *646:wbs_dat_o[19] O *D senseedge_top
*CAP
1 wbs_dat_o[19] 0.00146941
2 *646:wbs_dat_o[19] 0.00296875
3 *618:13 0.00464486
4 *618:11 0.0061442
5 wbs_dat_o[19] wbs_dat_o[20] 0.000821537
6 *618:11 *622:13 0
7 wbs_dat_o[18] wbs_dat_o[19] 3.05874e-05
8 *646:wbs_adr_i[21] *618:11 0
9 *556:9 *618:13 0
10 *556:13 *618:13 0
11 *559:11 *618:11 0
12 *588:19 wbs_dat_o[19] 0
13 *589:7 *618:13 0.00229672
*RES
1 *646:wbs_dat_o[19] *618:11 23.0271 
2 *618:11 *618:13 79.6607 
3 *618:13 wbs_dat_o[19] 12.2694 
*END

*D_NET *619 0.0193862
*CONN
*P wbs_dat_o[1] O
*I *646:wbs_dat_o[1] O *D senseedge_top
*CAP
1 wbs_dat_o[1] 0.00196203
2 *646:wbs_dat_o[1] 0.00201681
3 *619:11 0.00672145
4 *619:5 0.00677623
5 *619:11 *635:11 0.000493839
6 *619:11 *642:13 0
7 *619:11 *645:19 0
8 *571:7 *619:5 0.00141588
9 *603:13 *619:11 0
*RES
1 *646:wbs_dat_o[1] *619:5 49.8482 
2 *619:5 *619:11 21.4245 
3 *619:11 wbs_dat_o[1] 39.6696 
*END

*D_NET *620 0.0190353
*CONN
*P wbs_dat_o[20] O
*I *646:wbs_dat_o[20] O *D senseedge_top
*CAP
1 wbs_dat_o[20] 0.00144012
2 *646:wbs_dat_o[20] 0.00206144
3 *620:13 0.00517832
4 *620:11 0.00579964
5 *620:11 *622:11 0.002034
6 wbs_dat_o[19] wbs_dat_o[20] 0.000821537
7 *646:wbs_adr_i[18] *620:13 0.00136305
8 *557:13 *620:13 0.000337229
9 *588:19 wbs_dat_o[20] 0
10 *616:5 *620:13 0
*RES
1 *646:wbs_dat_o[20] *620:11 15.2063 
2 *620:11 *620:13 86.9464 
3 *620:13 wbs_dat_o[20] 12.3198 
*END

*D_NET *621 0.0164117
*CONN
*P wbs_dat_o[21] O
*I *646:wbs_dat_o[21] O *D senseedge_top
*CAP
1 wbs_dat_o[21] 0.000124903
2 *646:wbs_dat_o[21] 0.00281971
3 *621:13 0.00532673
4 *621:5 0.00802154
5 *621:5 *625:13 0
6 *557:13 *621:13 0
7 *588:19 *621:13 0
8 *593:13 *621:5 0
9 *616:13 *621:13 0.000118774
*RES
1 *646:wbs_dat_o[21] *621:5 56.5268 
2 *621:5 *621:13 49.0852 
3 *621:13 wbs_dat_o[21] 2.52679 
*END

*D_NET *622 0.0186342
*CONN
*P wbs_dat_o[22] O
*I *646:wbs_dat_o[22] O *D senseedge_top
*CAP
1 wbs_dat_o[22] 0.000856153
2 *646:wbs_dat_o[22] 0.00180137
3 *622:13 0.00520209
4 *622:11 0.0061473
5 *622:11 *624:11 0.00259333
6 *622:13 wbs_dat_o[23] 0
7 *646:wbs_dat_i[19] *622:13 0
8 *591:7 *622:13 0
9 *618:11 *622:13 0
10 *620:11 *622:11 0.002034
*RES
1 *646:wbs_dat_o[22] *622:11 15.8243 
2 *622:11 *622:13 87.5536 
3 *622:13 wbs_dat_o[22] 10.3957 
*END

*D_NET *623 0.0156591
*CONN
*P wbs_dat_o[23] O
*I *646:wbs_dat_o[23] O *D senseedge_top
*CAP
1 wbs_dat_o[23] 0.00117872
2 *646:wbs_dat_o[23] 0.00256419
3 *623:13 0.00524764
4 *623:5 0.00663311
5 wbs_dat_o[23] wbs_dat_o[24] 3.54764e-05
6 *623:13 *625:13 0
7 *557:13 wbs_dat_o[23] 0
8 *559:9 wbs_dat_o[23] 0
9 *560:9 *623:13 0
10 *560:11 *623:13 0
11 *592:13 *623:13 0
12 *622:13 wbs_dat_o[23] 0
*RES
1 *646:wbs_dat_o[23] *623:5 49.8482 
2 *623:5 *623:13 49.485 
3 *623:13 wbs_dat_o[23] 14.4212 
*END

*D_NET *624 0.0195432
*CONN
*P wbs_dat_o[24] O
*I *646:wbs_dat_o[24] O *D senseedge_top
*CAP
1 wbs_dat_o[24] 0.000422242
2 *646:wbs_dat_o[24] 0.0019988
3 *624:13 0.00472379
4 *624:11 0.00630035
5 *624:11 *626:11 0.00311321
6 *624:11 *627:11 0.000356018
7 wbs_dat_o[23] wbs_dat_o[24] 3.54764e-05
8 *646:wbs_adr_i[21] *624:13 0
9 *646:wbs_dat_i[21] *624:13 0
10 *560:9 *624:13 0
11 *560:11 *624:13 0
12 *593:13 *624:13 0
13 *622:11 *624:11 0.00259333
*RES
1 *646:wbs_dat_o[24] *624:11 17.2963 
2 *624:11 *624:13 86.9464 
3 *624:13 wbs_dat_o[24] 9.50922 
*END

*D_NET *625 0.0162796
*CONN
*P wbs_dat_o[25] O
*I *646:wbs_dat_o[25] O *D senseedge_top
*CAP
1 wbs_dat_o[25] 8.34412e-05
2 *646:wbs_dat_o[25] 0.00203383
3 *625:13 0.00501723
4 *625:5 0.00696761
5 *646:wbs_adr_i[22] *625:13 0
6 *561:7 *625:13 0
7 *594:13 *625:5 0.0021775
8 *621:5 *625:13 0
9 *623:13 *625:13 0
*RES
1 *646:wbs_dat_o[25] *625:5 55.9196 
2 *625:5 *625:13 49.1158 
3 *625:13 wbs_dat_o[25] 1.70536 
*END

*D_NET *626 0.0201173
*CONN
*P wbs_dat_o[26] O
*I *646:wbs_dat_o[26] O *D senseedge_top
*CAP
1 wbs_dat_o[26] 0.0015112
2 *646:wbs_dat_o[26] 0.00213599
3 *626:13 0.00435139
4 *626:11 0.00497619
5 *626:11 *627:11 0.00183639
6 *626:11 *628:11 0.00219292
7 *646:wbs_adr_i[23] *626:13 0
8 *646:wbs_adr_i[24] *626:11 0
9 *646:wbs_adr_i[28] *626:11 0
10 *624:11 *626:11 0.00311321
*RES
1 *646:wbs_dat_o[26] *626:11 18.7682 
2 *626:11 *626:13 57.0536 
3 *626:13 wbs_dat_o[26] 31.2411 
*END

*D_NET *627 0.0176545
*CONN
*P wbs_dat_o[27] O
*I *646:wbs_dat_o[27] O *D senseedge_top
*CAP
1 wbs_dat_o[27] 0.000336669
2 *646:wbs_dat_o[27] 0.00214342
3 *627:13 0.00420613
4 *627:11 0.00601288
5 *627:11 *628:11 0.000601533
6 *646:wbs_dat_i[24] *627:13 0
7 *563:11 *627:13 0
8 *594:11 wbs_dat_o[27] 0.000824418
9 *596:9 *627:13 0.00133704
10 *596:13 *627:13 0
11 *624:11 *627:11 0.000356018
12 *626:11 *627:11 0.00183639
*RES
1 *646:wbs_dat_o[27] *627:11 15.8243 
2 *627:11 *627:13 87.5536 
3 *627:13 wbs_dat_o[27] 9.79749 
*END

*D_NET *628 0.0198921
*CONN
*P wbs_dat_o[28] O
*I *646:wbs_dat_o[28] O *D senseedge_top
*CAP
1 wbs_dat_o[28] 0.000345605
2 *646:wbs_dat_o[28] 0.00205055
3 *628:13 0.0038691
4 *628:11 0.00557404
5 *628:11 *629:11 0.00135229
6 *628:11 *631:13 3.04937e-05
7 *646:wbs_adr_i[28] *628:11 0
8 *646:wbs_dat_i[25] *628:13 0.00286472
9 *646:wbs_dat_i[29] *628:11 0
10 *646:wbs_dat_i[31] *628:11 0.00080394
11 *564:7 wbs_dat_o[28] 0
12 *564:7 *628:13 0
13 *594:11 wbs_dat_o[28] 0.000206943
14 *595:13 wbs_dat_o[28] 0
15 *626:11 *628:11 0.00219292
16 *627:11 *628:11 0.000601533
*RES
1 *646:wbs_dat_o[28] *628:11 17.934 
2 *628:11 *628:13 84.5179 
3 *628:13 wbs_dat_o[28] 10.7044 
*END

*D_NET *629 0.0174936
*CONN
*P wbs_dat_o[29] O
*I *646:wbs_dat_o[29] O *D senseedge_top
*CAP
1 wbs_dat_o[29] 0.00164333
2 *646:wbs_dat_o[29] 0.00123742
3 *629:13 0.0047625
4 *629:11 0.00435658
5 wbs_dat_o[29] wbs_dat_o[30] 0
6 *629:11 *631:11 0.000870397
7 *629:11 *632:13 0
8 *646:wbs_adr_i[28] *629:13 0
9 *646:wbs_dat_i[29] *629:11 0.000345788
10 *646:wbs_dat_i[31] *629:11 2.3695e-05
11 *595:13 wbs_dat_o[29] 0.000387865
12 *597:11 wbs_dat_o[29] 0
13 *600:9 *629:13 0
14 *600:11 *629:13 0.00251376
15 *628:11 *629:11 0.00135229
*RES
1 *646:wbs_dat_o[29] *629:11 14.6495 
2 *629:11 *629:13 80.875 
3 *629:13 wbs_dat_o[29] 17.0768 
*END

*D_NET *630 0.0230455
*CONN
*P wbs_dat_o[2] O
*I *646:wbs_dat_o[2] O *D senseedge_top
*CAP
1 wbs_dat_o[2] 0.00155689
2 *646:wbs_dat_o[2] 0.00422235
3 *630:15 0.00387103
4 *630:11 0.00653648
5 *630:11 *634:11 0
6 *646:wb_rst_i *630:11 0.00102312
7 *646:wbs_adr_i[0] *630:11 0
8 *646:wbs_adr_i[3] *630:11 0
9 *646:wbs_adr_i[4] *630:11 0.00583562
10 *646:wbs_adr_i[6] *630:11 0
*RES
1 *646:wbs_dat_o[2] *630:11 34.237 
2 *630:11 *630:15 46.6607 
3 *630:15 wbs_dat_o[2] 31.5625 
*END

*D_NET *631 0.0180512
*CONN
*P wbs_dat_o[30] O
*I *646:wbs_dat_o[30] O *D senseedge_top
*CAP
1 wbs_dat_o[30] 0.00162157
2 *646:wbs_dat_o[30] 0.00106444
3 *631:13 0.00589832
4 *631:11 0.0053412
5 wbs_dat_o[30] wbs_dat_o[31] 0
6 wbs_dat_o[29] wbs_dat_o[30] 0
7 *646:wbs_adr_i[29] *631:13 0
8 *646:wbs_dat_i[31] *631:11 0.00322479
9 *144:13 *631:13 0
10 *272:13 *631:13 0
11 *628:11 *631:13 3.04937e-05
12 *629:11 *631:11 0.000870397
*RES
1 *646:wbs_dat_o[30] *631:11 13.7956 
2 *631:11 *631:13 86.9464 
3 *631:13 wbs_dat_o[30] 12.1974 
*END

*D_NET *632 0.0165511
*CONN
*P wbs_dat_o[31] O
*I *646:wbs_dat_o[31] O *D senseedge_top
*CAP
1 wbs_dat_o[31] 0.00160786
2 *646:wbs_dat_o[31] 0.00114043
3 *632:13 0.00572539
4 *632:11 0.00525797
5 la_data_out[1] *632:13 0
6 wbs_dat_o[30] wbs_dat_o[31] 0
7 *646:wbs_adr_i[30] *632:13 0
8 *646:wbs_dat_i[31] *632:11 0.0024235
9 *144:13 wbs_dat_o[31] 0.000395982
10 *183:13 *632:13 0
11 *629:11 *632:13 0
*RES
1 *646:wbs_dat_o[31] *632:11 12.1489 
2 *632:11 *632:13 83.3036 
3 *632:13 wbs_dat_o[31] 17.1272 
*END

*D_NET *633 0.0259923
*CONN
*P wbs_dat_o[3] O
*I *646:wbs_dat_o[3] O *D senseedge_top
*CAP
1 wbs_dat_o[3] 0.00106367
2 *646:wbs_dat_o[3] 0.00265758
3 *633:13 0.00356623
4 *633:11 0.00516014
5 wbs_dat_o[3] *640:17 0.00286836
6 wbs_dat_o[3] *641:11 0.00236553
7 *633:11 *646:wbs_sel_i[3] 0.000269884
8 *633:13 wbs_dat_o[5] 0.00311627
9 *646:wbs_dat_i[1] *633:13 0.00492462
10 *646:wbs_dat_i[4] *633:11 0
*RES
1 *646:wbs_dat_o[3] *633:11 15.8549 
2 *633:11 *633:13 86.3393 
3 *633:13 wbs_dat_o[3] 15.5743 
*END

*D_NET *634 0.0226347
*CONN
*P wbs_dat_o[4] O
*I *646:wbs_dat_o[4] O *D senseedge_top
*CAP
1 wbs_dat_o[4] 4.32496e-05
2 *646:wbs_dat_o[4] 0.00455104
3 *634:13 0.00348373
4 *634:11 0.00799152
5 *646:wbs_adr_i[6] *634:11 0.00656511
6 *646:wbs_adr_i[7] *634:11 0
7 *646:wbs_dat_i[0] *634:13 0
8 *602:9 *634:13 0
9 *602:11 *634:13 0
10 *630:11 *634:11 0
*RES
1 *646:wbs_dat_o[4] *634:11 39.9481 
2 *634:11 *634:13 69.3393 
3 *634:13 wbs_dat_o[4] 0.883929 
*END

*D_NET *635 0.0210102
*CONN
*P wbs_dat_o[5] O
*I *646:wbs_dat_o[5] O *D senseedge_top
*CAP
1 wbs_dat_o[5] 0.00130345
2 *646:wbs_dat_o[5] 0.00170831
3 *635:11 0.00590269
4 *635:5 0.00630755
5 *635:11 *639:11 0
6 *603:13 *635:11 0
7 *605:13 *635:11 0
8 *607:19 *635:5 0.00217807
9 *619:11 *635:11 0.000493839
10 *633:13 wbs_dat_o[5] 0.00311627
*RES
1 *646:wbs_dat_o[5] *635:5 49.2411 
2 *635:5 *635:11 20.5597 
3 *635:11 wbs_dat_o[5] 40.2768 
*END

*D_NET *636 0.0204513
*CONN
*P wbs_dat_o[6] O
*I *646:wbs_dat_o[6] O *D senseedge_top
*CAP
1 wbs_dat_o[6] 0.000612907
2 *646:wbs_dat_o[6] 0.00186148
3 *636:15 0.00212523
4 *636:11 0.00584378
5 *636:7 0.00619293
6 *636:11 *639:11 0
7 *646:wbs_adr_i[2] *636:15 0.00115981
8 *572:7 wbs_dat_o[6] 0
9 *572:7 *636:15 0
10 *573:13 *636:11 0
11 *598:13 *636:11 0
12 *601:13 *636:11 0.00265513
*RES
1 *646:wbs_dat_o[6] *636:7 40.5082 
2 *636:7 *636:11 17.0776 
3 *636:11 *636:15 40.8571 
4 *636:15 wbs_dat_o[6] 12.4196 
*END

*D_NET *637 0.0244471
*CONN
*P wbs_dat_o[7] O
*I *646:wbs_dat_o[7] O *D senseedge_top
*CAP
1 wbs_dat_o[7] 0.00299212
2 *646:wbs_dat_o[7] 0.000522123
3 *637:13 0.00716672
4 *637:11 0.00469671
5 wbs_dat_o[7] *643:13 0.000589915
6 wbs_dat_o[10] wbs_dat_o[7] 0.000640296
7 *646:wbs_adr_i[6] *637:13 0
8 *646:wbs_dat_i[6] *637:13 0
9 *646:wbs_dat_i[8] *637:11 0.00254299
10 *646:wbs_dat_i[9] *637:11 0.00254299
11 *545:13 *637:13 0.000649969
12 *606:11 wbs_dat_o[7] 0.000777518
13 *607:17 wbs_dat_o[7] 0.00132576
*RES
1 *646:wbs_dat_o[7] *637:11 12.1075 
2 *637:11 *637:13 86.9464 
3 *637:13 wbs_dat_o[7] 17.6588 
*END

*D_NET *638 0.0205006
*CONN
*P wbs_dat_o[8] O
*I *646:wbs_dat_o[8] O *D senseedge_top
*CAP
1 wbs_dat_o[8] 0.00152523
2 *646:wbs_dat_o[8] 0.00466148
3 *638:15 0.00387531
4 *638:11 0.00701156
5 *646:wbs_adr_i[10] *638:11 0
6 *646:wbs_adr_i[12] *638:11 0.00260548
7 *646:wbs_adr_i[4] *638:11 0.000821545
8 *646:wbs_adr_i[6] *638:11 0
9 *606:13 wbs_dat_o[8] 0
10 *606:13 *638:15 0
*RES
1 *646:wbs_dat_o[8] *638:11 33.0118 
2 *638:11 *638:15 47.0714 
3 *638:15 wbs_dat_o[8] 30.9018 
*END

*D_NET *639 0.0193579
*CONN
*P wbs_dat_o[9] O
*I *646:wbs_dat_o[9] O *D senseedge_top
*CAP
1 wbs_dat_o[9] 0.00233094
2 *646:wbs_dat_o[9] 0.00213537
3 *639:11 0.00689477
4 *639:7 0.0066992
5 *581:7 *639:7 0
6 *603:13 *639:11 0.00129761
7 *609:13 *639:7 0
8 *613:15 *639:7 0
9 *635:11 *639:11 0
10 *636:11 *639:11 0
*RES
1 *646:wbs_dat_o[9] *639:7 46.5796 
2 *639:7 *639:11 16.7173 
3 *639:11 wbs_dat_o[9] 46.5446 
*END

*D_NET *640 0.0229833
*CONN
*P wbs_sel_i[0] I
*I *646:wbs_sel_i[0] I *D senseedge_top
*CAP
1 wbs_sel_i[0] 0.00420322
2 *646:wbs_sel_i[0] 0.00292933
3 *640:21 0.0039982
4 *640:17 0.00527209
5 *640:17 *641:11 0.00207221
6 *640:17 *645:11 6.82827e-05
7 *640:17 *645:15 3.04851e-05
8 wbs_ack_o *640:17 0
9 wbs_dat_o[3] *640:17 0.00286836
10 *570:13 *640:21 0.00154114
11 *603:9 *646:wbs_sel_i[0] 0
12 *603:9 *640:21 0
*RES
1 wbs_sel_i[0] *640:17 24.1346 
2 *640:17 *640:21 28.7321 
3 *640:21 *646:wbs_sel_i[0] 58.8125 
*END

*D_NET *641 0.0236317
*CONN
*P wbs_sel_i[1] I
*I *646:wbs_sel_i[1] I *D senseedge_top
*CAP
1 wbs_sel_i[1] 0.00286504
2 *646:wbs_sel_i[1] 0.00294577
3 *641:15 0.00446544
4 *641:11 0.00438471
5 *641:11 *643:13 0.00453305
6 wbs_dat_o[3] *641:11 0.00236553
7 *571:7 *646:wbs_sel_i[1] 0
8 *571:7 *641:15 0
9 *604:13 *641:15 0
10 *640:17 *641:11 0.00207221
*RES
1 wbs_sel_i[1] *641:11 22.8416 
2 *641:11 *641:15 30.9643 
3 *641:15 *646:wbs_sel_i[1] 58.8125 
*END

*D_NET *642 0.0192056
*CONN
*P wbs_sel_i[2] I
*I *646:wbs_sel_i[2] I *D senseedge_top
*CAP
1 wbs_sel_i[2] 0.00170625
2 *646:wbs_sel_i[2] 0.00281616
3 *642:13 0.007742
4 *642:9 0.00663209
5 *587:13 *642:13 0
6 *605:13 *642:13 0.000309118
7 *619:11 *642:13 0
*RES
1 wbs_sel_i[2] *642:9 36.5975 
2 *642:9 *642:13 18.0865 
3 *642:13 *646:wbs_sel_i[2] 55.9196 
*END

*D_NET *643 0.0217977
*CONN
*P wbs_sel_i[3] I
*I *646:wbs_sel_i[3] I *D senseedge_top
*CAP
1 wbs_sel_i[3] 0.00304197
2 *646:wbs_sel_i[3] 0.000727646
3 *643:15 0.0050355
4 *643:13 0.00734983
5 wbs_dat_o[7] *643:13 0.000589915
6 *646:wbs_adr_i[3] *643:15 0
7 *646:wbs_dat_i[3] *643:15 0
8 *646:wbs_dat_i[4] *646:wbs_sel_i[3] 0.000191211
9 *573:7 *643:15 0
10 *606:13 *646:wbs_sel_i[3] 5.86995e-05
11 *633:11 *646:wbs_sel_i[3] 0.000269884
12 *641:11 *643:13 0.00453305
*RES
1 wbs_sel_i[3] *643:13 21.0711 
2 *643:13 *643:15 86.3393 
3 *643:15 *646:wbs_sel_i[3] 12.0551 
*END

*D_NET *644 0.0201003
*CONN
*P wbs_stb_i I
*I *646:wbs_stb_i I *D senseedge_top
*CAP
1 wbs_stb_i 0.000871542
2 *646:wbs_stb_i 0.0019098
3 *644:21 0.00629506
4 *644:15 0.00666841
5 *644:13 0.00315469
6 *644:13 *645:11 0
7 wbs_ack_o *644:13 0.000216648
8 *541:13 *644:13 0
9 *543:7 *644:15 0
10 *598:13 *644:21 0
11 *601:13 *644:21 0.00098413
*RES
1 wbs_stb_i *644:13 13.9997 
2 *644:13 *644:15 46.875 
3 *644:15 *644:21 20.1273 
4 *644:21 *646:wbs_stb_i 37.0982 
*END

*D_NET *645 0.0198778
*CONN
*P wbs_we_i I
*I *646:wbs_we_i I *D senseedge_top
*CAP
1 wbs_we_i 0.0015291
2 *646:wbs_we_i 0.00218046
3 *645:19 0.00614994
4 *645:15 0.00617997
5 *645:11 0.0037396
6 *554:7 *645:15 0
7 *569:11 *646:wbs_we_i 0
8 *601:13 *645:19 0
9 *619:11 *645:19 0
10 *640:17 *645:11 6.82827e-05
11 *640:17 *645:15 3.04851e-05
12 *644:13 *645:11 0
*RES
1 wbs_we_i *645:11 11.7146 
2 *645:11 *645:15 48.4636 
3 *645:15 *645:19 14.5553 
4 *645:19 *646:wbs_we_i 43.7768 
*END
